LAMMPS (10 Aug 2015)
Reading data file ...
  orthogonal box = (-100 -100 -100) to (100 100 100)
  1 by 1 by 1 MPI processor grid
  reading atoms ...
  80 atoms
WARNING: Resetting reneighboring criteria during minimization (../min.cpp:168)
Neighbor list info ...
  2 neighbor list requests
  update every 1 steps, delay 0 steps, check yes
  master list distance cutoff = 6.8
  ghost atom cutoff = 6.8
Setting up cg style minimization ...
  Unit style: metal
Memory usage per processor = 12.4211 Mbytes
Step TotEng PotEng KinEng Fmax Fnorm 
       0      -5.46388555      -5.46388555       0.00000000       4.09974239      32.26375969 
       1      -5.64535446      -5.64535446       0.00000000       1.91007399      14.43783640 
       2      -5.71306137      -5.71306137       0.00000000       1.01380370       8.23897132 
       3      -5.73486679      -5.73486679       0.00000000       1.28876904       6.51809084 
       4      -5.74724763      -5.74724763       0.00000000       0.80689918       3.35487314 
       5      -5.75037284      -5.75037284       0.00000000       0.41329096       2.40786334 
       6      -5.75233043      -5.75233043       0.00000000       0.54364844       2.10371081 
       7      -5.75765823      -5.75765823       0.00000000       0.95735076       4.29349486 
       8      -5.76433985      -5.76433985       0.00000000       0.84481718       4.11634969 
       9      -5.76968426      -5.76968426       0.00000000       0.78672824       3.30211211 
      10      -5.77667459      -5.77667459       0.00000000       0.57679262       2.90562137 
      11      -5.78080381      -5.78080381       0.00000000       0.89893126       3.51598508 
      12      -5.78616019      -5.78616019       0.00000000       1.07579818       3.86910845 
      13      -5.79286435      -5.79286435       0.00000000       0.93403866       3.96337140 
      14      -5.79825125      -5.79825125       0.00000000       0.64563465       4.01196053 
      15      -5.80320743      -5.80320743       0.00000000       0.60468054       2.97912970 
      16      -5.80798138      -5.80798138       0.00000000       0.46770893       3.32964365 
      17      -5.81167159      -5.81167159       0.00000000       0.32977010       1.66734361 
      18      -5.81355334      -5.81355334       0.00000000       0.61665310       2.17330667 
      19      -5.81534007      -5.81534007       0.00000000       0.18935747       1.25097811 
      20      -5.81603795      -5.81603795       0.00000000       0.20522725       1.24492360 
      21      -5.81686389      -5.81686389       0.00000000       0.15122857       0.96652205 
      22      -5.81737326      -5.81737326       0.00000000       0.18866039       0.96760034 
      23      -5.81808604      -5.81808604       0.00000000       0.36758610       1.99648226 
      24      -5.82161115      -5.82161115       0.00000000       0.66163411       3.35664642 
      25      -5.82416323      -5.82416323       0.00000000       0.61724042       3.49711958 
      26      -5.82998158      -5.82998158       0.00000000       0.74335559       3.54825605 
      27      -5.83696766      -5.83696766       0.00000000       0.62395710       2.73871069 
      28      -5.84040482      -5.84040482       0.00000000       0.44066871       2.20749631 
      29      -5.84222233      -5.84222233       0.00000000       0.34321440       1.63004576 
      30      -5.84347637      -5.84347637       0.00000000       0.27081360       1.39953502 
      31      -5.84424909      -5.84424909       0.00000000       0.21283622       0.83061850 
      32      -5.84449982      -5.84449982       0.00000000       0.12137023       0.54287368 
      33      -5.84457910      -5.84457910       0.00000000       0.11323024       0.42119590 
      34      -5.84462752      -5.84462752       0.00000000       0.05717234       0.27784035 
      35      -5.84466036      -5.84466036       0.00000000       0.06537849       0.23672909 
      36      -5.84467952      -5.84467952       0.00000000       0.06288260       0.21136168 
      37      -5.84469559      -5.84469559       0.00000000       0.06275027       0.19699012 
      38      -5.84471493      -5.84471493       0.00000000       0.04636533       0.22509223 
      39      -5.84476124      -5.84476124       0.00000000       0.12445787       0.38629050 
      40      -5.84534847      -5.84534847       0.00000000       0.33436267       1.42156015 
      41      -5.84541875      -5.84541875       0.00000000       0.34917259       1.50009051 
      42      -5.84597034      -5.84597034       0.00000000       0.37670803       1.11292143 
      43      -5.84649717      -5.84649717       0.00000000       0.26164127       1.12896755 
      44      -5.84705459      -5.84705459       0.00000000       0.28721179       1.01502130 
      45      -5.84741024      -5.84741024       0.00000000       0.31184336       0.96424943 
      46      -5.84771597      -5.84771597       0.00000000       0.16757302       0.81276824 
      47      -5.84799990      -5.84799990       0.00000000       0.16498437       0.83415451 
      48      -5.84872517      -5.84872517       0.00000000       1.14144914       3.55478378 
      49      -5.85357914      -5.85357914       0.00000000       1.76936955       6.71079254 
      50      -5.86271650      -5.86271650       0.00000000       1.77109760       7.89757090 
      51      -5.87170666      -5.87170666       0.00000000       1.36585494       7.03994738 
      52      -5.89735720      -5.89735720       0.00000000       1.34408161       5.53946355 
      53      -5.91295839      -5.91295839       0.00000000       0.71647717       3.36167460 
      54      -5.91873871      -5.91873871       0.00000000       0.68302085       2.80188619 
      55      -5.92194476      -5.92194476       0.00000000       0.59134420       2.24212751 
      56      -5.92439827      -5.92439827       0.00000000       0.36878394       1.82949574 
      57      -5.92576616      -5.92576616       0.00000000       0.36615140       1.66231674 
      58      -5.92739834      -5.92739834       0.00000000       0.40359950       1.67656307 
      59      -5.92882447      -5.92882447       0.00000000       0.37288417       1.54049700 
      60      -5.93009619      -5.93009619       0.00000000       0.49312364       1.54240763 
      61      -5.93108301      -5.93108301       0.00000000       0.36069463       1.26751193 
      62      -5.93192002      -5.93192002       0.00000000       0.31160550       0.98052198 
      63      -5.93226987      -5.93226987       0.00000000       0.30624482       0.73572863 
      64      -5.93248441      -5.93248441       0.00000000       0.21680305       0.66018177 
      65      -5.93263175      -5.93263175       0.00000000       0.19314989       0.55818858 
      66      -5.93274309      -5.93274309       0.00000000       0.13606817       0.41511403 
      67      -5.93280589      -5.93280589       0.00000000       0.18944731       0.44418462 
      68      -5.93286007      -5.93286007       0.00000000       0.05142609       0.31597059 
      69      -5.93290717      -5.93290717       0.00000000       0.07737708       0.27298180 
      70      -5.93294543      -5.93294543       0.00000000       0.04606888       0.22653449 
      71      -5.93296435      -5.93296435       0.00000000       0.06022570       0.17428008 
      72      -5.93297326      -5.93297326       0.00000000       0.02961970       0.09220092 
      73      -5.93297616      -5.93297616       0.00000000       0.01756864       0.07585549 
      74      -5.93297809      -5.93297809       0.00000000       0.01314315       0.04859790 
      75      -5.93297888      -5.93297888       0.00000000       0.00898031       0.03408953 
      76      -5.93297930      -5.93297930       0.00000000       0.00647440       0.02585673 
      77      -5.93297954      -5.93297954       0.00000000       0.00405140       0.01796966 
      78      -5.93297967      -5.93297967       0.00000000       0.00327998       0.01363135 
      79      -5.93297974      -5.93297974       0.00000000       0.00204128       0.01027317 
      80      -5.93297979      -5.93297979       0.00000000       0.00219070       0.00786155 
      81      -5.93297981      -5.93297981       0.00000000       0.00240562       0.00592372 
      82      -5.93297982      -5.93297982       0.00000000       0.00113429       0.00399473 
      83      -5.93297983      -5.93297983       0.00000000       0.00069808       0.00284138 
      84      -5.93297983      -5.93297983       0.00000000       0.00085708       0.00248060 
      85      -5.93297983      -5.93297983       0.00000000       0.00057225       0.00194479 
      86      -5.93297983      -5.93297983       0.00000000       0.00023590       0.00136561 
      87      -5.93297983      -5.93297983       0.00000000       0.00019422       0.00097828 
      88      -5.93297983      -5.93297983       0.00000000       0.00015986       0.00067797 
      89      -5.93297983      -5.93297983       0.00000000       0.00019635       0.00051107 
      90      -5.93297983      -5.93297983       0.00000000       0.00012839       0.00034642 
      91      -5.93297983      -5.93297983       0.00000000       0.00005608       0.00027103 
      92      -5.93297983      -5.93297983       0.00000000       0.00004223       0.00019885 
      93      -5.93297983      -5.93297983       0.00000000       0.00005431       0.00016730 
      94      -5.93297983      -5.93297983       0.00000000       0.00003242       0.00011631 
      95      -5.93297983      -5.93297983       0.00000000       0.00001618       0.00008297 
      96      -5.93297983      -5.93297983       0.00000000       0.00001200       0.00006228 
      97      -5.93297983      -5.93297983       0.00000000       0.00000943       0.00005085 
      98      -5.93297983      -5.93297983       0.00000000       0.00001706       0.00004298 
      99      -5.93297983      -5.93297983       0.00000000       0.00001256       0.00003412 
     100      -5.93297983      -5.93297983       0.00000000       0.00000680       0.00003075 
     101      -5.93297983      -5.93297983       0.00000000       0.00000438       0.00002059 
     102      -5.93297983      -5.93297983       0.00000000       0.00000469       0.00001948 
     103      -5.93297983      -5.93297983       0.00000000       0.00000441       0.00001341 
     104      -5.93297983      -5.93297983       0.00000000       0.00000350       0.00001064 
     105      -5.93297983      -5.93297983       0.00000000       0.00000229       0.00000761 
     106      -5.93297983      -5.93297983       0.00000000       0.00000135       0.00000566 
     107      -5.93297983      -5.93297983       0.00000000       0.00000171       0.00000471 
     108      -5.93297983      -5.93297983       0.00000000       0.00000141       0.00000348 
     109      -5.93297983      -5.93297983       0.00000000       0.00000055       0.00000239 
     110      -5.93297983      -5.93297983       0.00000000       0.00000030       0.00000165 
     111      -5.93297983      -5.93297983       0.00000000       0.00000032       0.00000120 
     112      -5.93297983      -5.93297983       0.00000000       0.00000036       0.00000101 
     113      -5.93297983      -5.93297983       0.00000000       0.00000023       0.00000070 
     114      -5.93297983      -5.93297983       0.00000000       0.00000015       0.00000058 
     115      -5.93297983      -5.93297983       0.00000000       0.00000015       0.00000049 
     116      -5.93297983      -5.93297983       0.00000000       0.00000017       0.00000036 
     117      -5.93297983      -5.93297983       0.00000000       0.00000008       0.00000029 
     118      -5.93297983      -5.93297983       0.00000000       0.00000003       0.00000015 
     119      -5.93297983      -5.93297983       0.00000000       0.00000003       0.00000010 
     120      -5.93297983      -5.93297983       0.00000000       0.00000001       0.00000007 
     121      -5.93297983      -5.93297983       0.00000000       0.00000002       0.00000006 
     122      -5.93297983      -5.93297983       0.00000000       0.00000002       0.00000005 
     123      -5.93297983      -5.93297983       0.00000000       0.00000001       0.00000003 
     124      -5.93297983      -5.93297983       0.00000000       0.00000001       0.00000002 
     125      -5.93297983      -5.93297983       0.00000000       0.00000001       0.00000001 
     126      -5.93297983      -5.93297983       0.00000000       0.00000000       0.00000001 
     127      -5.93297983      -5.93297983       0.00000000       0.00000000       0.00000001 
Loop time of 0.386199 on 1 procs for 127 steps with 80 atoms

Minimization stats:
  Stopping criterion = force tolerance
  Energy initial, next-to-last, final = 
        -5.46388555298     -5.93297983395     -5.93297983395
  Force two-norm initial, final = 32.2638 8.17929e-09
  Force max component initial, final = 4.09974 1.81264e-09
  Final line search alpha, max atom move = 1 1.81264e-09
  Iterations, force evaluations = 127 240

Pair  time (%) = 0.354989 (91.9186)
Neigh time (%) = 0.000447989 (0.115999)
Comm  time (%) = 0.00091815 (0.23774)
Outpt time (%) = 0.0257492 (6.66734)
Other time (%) = 0.00409508 (1.06035)

Nlocal:    80 ave 80 max 80 min
Histogram: 1 0 0 0 0 0 0 0 0 0
Nghost:    0 ave 0 max 0 min
Histogram: 1 0 0 0 0 0 0 0 0 0
Neighs:    1863 ave 1863 max 1863 min
Histogram: 1 0 0 0 0 0 0 0 0 0
FullNghs:  3726 ave 3726 max 3726 min
Histogram: 1 0 0 0 0 0 0 0 0 0

Total # of neighbors = 3726
Ave neighs/atom = 46.575
Neighbor list builds = 1
Dangerous builds = 0
