GG Entering Gaussian System, Link 0=g09
 Initial command:
 /aplic/Gaussian/g09b01_prebuilt/g09/l1.exe /home/g16pinero/Gaussian/PBE/Gau-31435.inp -scrdir=/home/g16pinero/Gaussian/PBE/
 Entering Link 1 = /aplic/Gaussian/g09b01_prebuilt/g09/l1.exe PID=     31436.
  
 Copyright (c) 1988,1990,1992,1993,1995,1998,2003,2009,2010,
            Gaussian, Inc.  All Rights Reserved.
  
 This is part of the Gaussian(R) 09 program.  It is based on
 the Gaussian(R) 03 system (copyright 2003, Gaussian, Inc.),
 the Gaussian(R) 98 system (copyright 1998, Gaussian, Inc.),
 the Gaussian(R) 94 system (copyright 1995, Gaussian, Inc.),
 the Gaussian 92(TM) system (copyright 1992, Gaussian, Inc.),
 the Gaussian 90(TM) system (copyright 1990, Gaussian, Inc.),
 the Gaussian 88(TM) system (copyright 1988, Gaussian, Inc.),
 the Gaussian 86(TM) system (copyright 1986, Carnegie Mellon
 University), and the Gaussian 82(TM) system (copyright 1983,
 Carnegie Mellon University). Gaussian is a federally registered
 trademark of Gaussian, Inc.
  
 This software contains proprietary and confidential information,
 including trade secrets, belonging to Gaussian, Inc.
  
 This software is provided under written license and may be
 used, copied, transmitted, or stored only in accord with that
 written license.
  
 The following legend is applicable only to US Government
 contracts under FAR:
  
                    RESTRICTED RIGHTS LEGEND
  
 Use, reproduction and disclosure by the US Government is
 subject to restrictions as set forth in subparagraphs (a)
 and (c) of the Commercial Computer Software - Restricted
 Rights clause in FAR 52.227-19.
  
 Gaussian, Inc.
 340 Quinnipiac St., Bldg. 40, Wallingford CT 06492
  
  
 ---------------------------------------------------------------
 Warning -- This program may not be used in any manner that
 competes with the business of Gaussian, Inc. or will provide
 assistance to any competitor of Gaussian, Inc.  The licensee
 of this program is prohibited from giving any competitor of
 Gaussian, Inc. access to this program.  By using this program,
 the user acknowledges that Gaussian, Inc. is engaged in the
 business of creating and licensing software in the field of
 computational chemistry and represents and warrants to the
 licensee that it is not a competitor of Gaussian, Inc. and that
 it will not use this program in any manner prohibited above.
 ---------------------------------------------------------------
  

 Cite this work as:
 Gaussian 09, Revision B.01,
 M. J. Frisch, G. W. Trucks, H. B. Schlegel, G. E. Scuseria, 
 M. A. Robb, J. R. Cheeseman, G. Scalmani, V. Barone, B. Mennucci, 
 G. A. Petersson, H. Nakatsuji, M. Caricato, X. Li, H. P. Hratchian, 
 A. F. Izmaylov, J. Bloino, G. Zheng, J. L. Sonnenberg, M. Hada, 
 M. Ehara, K. Toyota, R. Fukuda, J. Hasegawa, M. Ishida, T. Nakajima, 
 Y. Honda, O. Kitao, H. Nakai, T. Vreven, J. A. Montgomery, Jr., 
 J. E. Peralta, F. Ogliaro, M. Bearpark, J. J. Heyd, E. Brothers, 
 K. N. Kudin, V. N. Staroverov, T. Keith, R. Kobayashi, J. Normand, 
 K. Raghavachari, A. Rendell, J. C. Burant, S. S. Iyengar, J. Tomasi, 
 M. Cossi, N. Rega, J. M. Millam, M. Klene, J. E. Knox, J. B. Cross, 
 V. Bakken, C. Adamo, J. Jaramillo, R. Gomperts, R. E. Stratmann, 
 O. Yazyev, A. J. Austin, R. Cammi, C. Pomelli, J. W. Ochterski, 
 R. L. Martin, K. Morokuma, V. G. Zakrzewski, G. A. Voth, 
 P. Salvador, J. J. Dannenberg, S. Dapprich, A. D. Daniels, 
 O. Farkas, J. B. Foresman, J. V. Ortiz, J. Cioslowski, 
 and D. J. Fox, Gaussian, Inc., Wallingford CT, 2010.
 
 ******************************************
 Gaussian 09:  EM64L-G09RevB.01 12-Aug-2010
                14-Mar-2019 
 ******************************************
 -----------------
 # PBEPBE Opt Freq
 -----------------
 1/14=-1,18=20,19=15,26=3,38=1/1,3;
 2/9=110,12=2,17=6,18=5,40=1/2;
 3/11=2,16=1,25=1,30=1,71=1,74=1009/1,2,3;
 4//1;
 5/5=2,38=5/2;
 6/7=2,8=2,9=2,10=2,28=1/1;
 7//1,2,3,16;
 1/14=-1,18=20,19=15/3(2);
 2/9=110/2;
 99//99;
 2/9=110/2;
 3/11=2,16=1,25=1,30=1,71=1,74=1009/1,2,3;
 4/5=5,16=3/1;
 5/5=2,38=5/2;
 7//1,2,3,16;
 1/14=-1,18=20,19=15/3(-5);
 2/9=110/2;
 6/7=2,8=2,9=2,10=2,19=2,28=1/1;
 99/9=1/99;
 -----
 TiC_6
 -----
 Symbolic Z-matrix:
 Charge =  0 Multiplicity = 1
 Ti                    11.30508   9.75208   10.59409 
 Ti                    11.02149   11.51971   8.3906 
 Ti                    10.70283   8.84241   7.97286 
 Ti                    9.29717   11.15758   12.02708 
 Ti                    8.97857   8.48024   11.6093 
 Ti                    8.69493   10.24797   9.4059 
 C                     12.09897   9.94749   8.73532 
 C                     10.36728   9.58381   12.38751 
 C                     10.17218   11.44733   10.22582 
 C                     9.82779   8.5527    9.77421 
 C                     9.63266   10.41621   7.6125 
 C                     7.90106   10.05244   11.26479 
 

 GradGradGradGradGradGradGradGradGradGradGradGradGradGradGradGradGradGrad
 Berny optimization.
 Initialization pass.
                           ----------------------------
                           !    Initial Parameters    !
                           ! (Angstroms and Degrees)  !
 --------------------------                            --------------------------
 ! Name  Definition              Value          Derivative Info.                !
 --------------------------------------------------------------------------------
 ! R1    R(1,2)                  2.8391         estimate D2E/DX2                !
 ! R2    R(1,3)                  2.8392         estimate D2E/DX2                !
 ! R3    R(1,4)                  2.8391         estimate D2E/DX2                !
 ! R4    R(1,5)                  2.8392         estimate D2E/DX2                !
 ! R5    R(1,6)                  2.9104         estimate D2E/DX2                !
 ! R6    R(1,7)                  2.0306         estimate D2E/DX2                !
 ! R7    R(1,8)                  2.0308         estimate D2E/DX2                !
 ! R8    R(1,9)                  2.0719         estimate D2E/DX2                !
 ! R9    R(1,10)                 2.072          estimate D2E/DX2                !
 ! R10   R(2,3)                  2.7284         estimate D2E/DX2                !
 ! R11   R(2,6)                  2.8392         estimate D2E/DX2                !
 ! R12   R(2,7)                  1.9369         estimate D2E/DX2                !
 ! R13   R(2,9)                  2.0235         estimate D2E/DX2                !
 ! R14   R(2,11)                 1.937          estimate D2E/DX2                !
 ! R15   R(3,6)                  2.8392         estimate D2E/DX2                !
 ! R16   R(3,7)                  1.9369         estimate D2E/DX2                !
 ! R17   R(3,10)                 2.0235         estimate D2E/DX2                !
 ! R18   R(3,11)                 1.937          estimate D2E/DX2                !
 ! R19   R(4,5)                  2.7284         estimate D2E/DX2                !
 ! R20   R(4,6)                  2.8391         estimate D2E/DX2                !
 ! R21   R(4,8)                  1.937          estimate D2E/DX2                !
 ! R22   R(4,9)                  2.0234         estimate D2E/DX2                !
 ! R23   R(4,12)                 1.9369         estimate D2E/DX2                !
 ! R24   R(5,6)                  2.8391         estimate D2E/DX2                !
 ! R25   R(5,8)                  1.937          estimate D2E/DX2                !
 ! R26   R(5,10)                 2.0234         estimate D2E/DX2                !
 ! R27   R(5,12)                 1.9369         estimate D2E/DX2                !
 ! R28   R(6,9)                  2.072          estimate D2E/DX2                !
 ! R29   R(6,10)                 2.072          estimate D2E/DX2                !
 ! R30   R(6,11)                 2.0307         estimate D2E/DX2                !
 ! R31   R(6,12)                 2.0308         estimate D2E/DX2                !
 ! A1    A(2,1,4)               90.7377         estimate D2E/DX2                !
 ! A2    A(2,1,5)              118.3319         estimate D2E/DX2                !
 ! A3    A(2,1,8)              133.6993         estimate D2E/DX2                !
 ! A4    A(2,1,10)              88.9725         estimate D2E/DX2                !
 ! A5    A(3,1,4)              118.3317         estimate D2E/DX2                !
 ! A6    A(3,1,5)               90.7321         estimate D2E/DX2                !
 ! A7    A(3,1,8)              133.6943         estimate D2E/DX2                !
 ! A8    A(3,1,9)               88.9724         estimate D2E/DX2                !
 ! A9    A(4,1,7)              133.6988         estimate D2E/DX2                !
 ! A10   A(4,1,10)              88.9711         estimate D2E/DX2                !
 ! A11   A(5,1,7)              133.6918         estimate D2E/DX2                !
 ! A12   A(5,1,9)               88.9702         estimate D2E/DX2                !
 ! A13   A(6,1,7)               87.7373         estimate D2E/DX2                !
 ! A14   A(6,1,8)               87.7366         estimate D2E/DX2                !
 ! A15   A(7,1,9)               88.4143         estimate D2E/DX2                !
 ! A16   A(7,1,10)              88.409          estimate D2E/DX2                !
 ! A17   A(8,1,9)               88.4107         estimate D2E/DX2                !
 ! A18   A(8,1,10)              88.4092         estimate D2E/DX2                !
 ! A19   A(9,1,10)              90.7701         estimate D2E/DX2                !
 ! A20   A(1,2,11)              91.6444         estimate D2E/DX2                !
 ! A21   A(3,2,9)               93.138          estimate D2E/DX2                !
 ! A22   A(6,2,7)               91.6399         estimate D2E/DX2                !
 ! A23   A(7,2,9)               92.4666         estimate D2E/DX2                !
 ! A24   A(7,2,11)              90.4537         estimate D2E/DX2                !
 ! A25   A(9,2,11)              92.4649         estimate D2E/DX2                !
 ! A26   A(1,3,11)              91.6408         estimate D2E/DX2                !
 ! A27   A(2,3,10)              93.1358         estimate D2E/DX2                !
 ! A28   A(6,3,7)               91.6402         estimate D2E/DX2                !
 ! A29   A(7,3,10)              92.4622         estimate D2E/DX2                !
 ! A30   A(7,3,11)              90.4533         estimate D2E/DX2                !
 ! A31   A(10,3,11)             92.4663         estimate D2E/DX2                !
 ! A32   A(1,4,12)              91.6426         estimate D2E/DX2                !
 ! A33   A(5,4,9)               93.1359         estimate D2E/DX2                !
 ! A34   A(6,4,8)               91.6432         estimate D2E/DX2                !
 ! A35   A(8,4,9)               92.4693         estimate D2E/DX2                !
 ! A36   A(8,4,12)              90.4506         estimate D2E/DX2                !
 ! A37   A(9,4,12)              92.4677         estimate D2E/DX2                !
 ! A38   A(1,5,12)              91.6411         estimate D2E/DX2                !
 ! A39   A(4,5,10)              93.1371         estimate D2E/DX2                !
 ! A40   A(6,5,8)               91.644          estimate D2E/DX2                !
 ! A41   A(8,5,10)              92.4684         estimate D2E/DX2                !
 ! A42   A(8,5,12)              90.4491         estimate D2E/DX2                !
 ! A43   A(10,5,12)             92.4704         estimate D2E/DX2                !
 ! A44   A(1,6,11)              87.738          estimate D2E/DX2                !
 ! A45   A(1,6,12)              87.735          estimate D2E/DX2                !
 ! A46   A(2,6,4)               90.7347         estimate D2E/DX2                !
 ! A47   A(2,6,5)              118.3309         estimate D2E/DX2                !
 ! A48   A(2,6,10)              88.9696         estimate D2E/DX2                !
 ! A49   A(2,6,12)             133.694          estimate D2E/DX2                !
 ! A50   A(3,6,4)              118.3324         estimate D2E/DX2                !
 ! A51   A(3,6,5)               90.7349         estimate D2E/DX2                !
 ! A52   A(3,6,9)               88.9732         estimate D2E/DX2                !
 ! A53   A(3,6,12)             133.6953         estimate D2E/DX2                !
 ! A54   A(4,6,10)              88.9712         estimate D2E/DX2                !
 ! A55   A(4,6,11)             133.6965         estimate D2E/DX2                !
 ! A56   A(5,6,9)               88.9726         estimate D2E/DX2                !
 ! A57   A(5,6,11)             133.6968         estimate D2E/DX2                !
 ! A58   A(9,6,10)              90.7706         estimate D2E/DX2                !
 ! A59   A(9,6,11)              88.4122         estimate D2E/DX2                !
 ! A60   A(9,6,12)              88.4081         estimate D2E/DX2                !
 ! A61   A(10,6,11)             88.4121         estimate D2E/DX2                !
 ! A62   A(10,6,12)             88.4095         estimate D2E/DX2                !
 ! A63   A(2,9,4)              173.7248         estimate D2E/DX2                !
 ! A64   A(3,10,5)             173.7285         estimate D2E/DX2                !
 ! D1    D(4,1,2,11)           -88.7001         estimate D2E/DX2                !
 ! D2    D(5,1,2,11)           -35.9002         estimate D2E/DX2                !
 ! D3    D(8,1,2,11)           -86.5583         estimate D2E/DX2                !
 ! D4    D(10,1,2,11)            0.2575         estimate D2E/DX2                !
 ! D5    D(4,1,3,11)            35.908          estimate D2E/DX2                !
 ! D6    D(5,1,3,11)            88.7043         estimate D2E/DX2                !
 ! D7    D(8,1,3,11)            86.5657         estimate D2E/DX2                !
 ! D8    D(9,1,3,11)            -0.2525         estimate D2E/DX2                !
 ! D9    D(2,1,4,12)            88.7055         estimate D2E/DX2                !
 ! D10   D(3,1,4,12)            35.9064         estimate D2E/DX2                !
 ! D11   D(7,1,4,12)            86.561          estimate D2E/DX2                !
 ! D12   D(10,1,4,12)           -0.2535         estimate D2E/DX2                !
 ! D13   D(2,1,5,12)           -35.9142         estimate D2E/DX2                !
 ! D14   D(3,1,5,12)           -88.7094         estimate D2E/DX2                !
 ! D15   D(7,1,5,12)           -86.5718         estimate D2E/DX2                !
 ! D16   D(9,1,5,12)             0.2495         estimate D2E/DX2                !
 ! D17   D(7,1,6,11)            -0.0036         estimate D2E/DX2                !
 ! D18   D(7,1,6,12)           179.9973         estimate D2E/DX2                !
 ! D19   D(8,1,6,11)          -179.9989         estimate D2E/DX2                !
 ! D20   D(8,1,6,12)             0.002          estimate D2E/DX2                !
 ! D21   D(9,2,3,10)            -0.0041         estimate D2E/DX2                !
 ! D22   D(7,2,6,4)             88.7033         estimate D2E/DX2                !
 ! D23   D(7,2,6,5)             35.9039         estimate D2E/DX2                !
 ! D24   D(7,2,6,10)            -0.2545         estimate D2E/DX2                !
 ! D25   D(7,2,6,12)            86.5595         estimate D2E/DX2                !
 ! D26   D(3,2,7,1)            -91.3433         estimate D2E/DX2                !
 ! D27   D(3,2,9,4)              0.0355         estimate D2E/DX2                !
 ! D28   D(7,2,9,4)            -45.2443         estimate D2E/DX2                !
 ! D29   D(11,2,9,4)            45.3166         estimate D2E/DX2                !
 ! D30   D(7,3,6,4)            -35.9029         estimate D2E/DX2                !
 ! D31   D(7,3,6,5)            -88.7019         estimate D2E/DX2                !
 ! D32   D(7,3,6,9)              0.2573         estimate D2E/DX2                !
 ! D33   D(7,3,6,12)           -86.5581         estimate D2E/DX2                !
 ! D34   D(2,3,10,5)             0.0271         estimate D2E/DX2                !
 ! D35   D(7,3,10,5)            45.3057         estimate D2E/DX2                !
 ! D36   D(11,3,10,5)          -45.2545         estimate D2E/DX2                !
 ! D37   D(6,3,11,2)            91.3378         estimate D2E/DX2                !
 ! D38   D(9,4,5,10)             0.0026         estimate D2E/DX2                !
 ! D39   D(8,4,6,2)            -88.7037         estimate D2E/DX2                !
 ! D40   D(8,4,6,3)            -35.9081         estimate D2E/DX2                !
 ! D41   D(8,4,6,10)             0.2524         estimate D2E/DX2                !
 ! D42   D(8,4,6,11)           -86.5665         estimate D2E/DX2                !
 ! D43   D(5,4,8,1)             91.3355         estimate D2E/DX2                !
 ! D44   D(5,4,9,2)             -0.0344         estimate D2E/DX2                !
 ! D45   D(8,4,9,2)             45.2464         estimate D2E/DX2                !
 ! D46   D(12,4,9,2)           -45.3116         estimate D2E/DX2                !
 ! D47   D(8,5,6,2)             35.9103         estimate D2E/DX2                !
 ! D48   D(8,5,6,3)             88.7066         estimate D2E/DX2                !
 ! D49   D(8,5,6,9)             -0.2531         estimate D2E/DX2                !
 ! D50   D(8,5,6,11)            86.5672         estimate D2E/DX2                !
 ! D51   D(4,5,10,3)            -0.0261         estimate D2E/DX2                !
 ! D52   D(8,5,10,3)           -45.3052         estimate D2E/DX2                !
 ! D53   D(12,5,10,3)           45.2512         estimate D2E/DX2                !
 ! D54   D(6,5,12,4)           -91.3389         estimate D2E/DX2                !
 --------------------------------------------------------------------------------
 Trust Radius=3.00D-01 FncErr=1.00D-07 GrdErr=1.00D-06
 Number of steps in this run=    100 maximum allowed number of steps=    100.
 GradGradGradGradGradGradGradGradGradGradGradGradGradGradGradGradGradGrad

                          Input orientation:                          
 ---------------------------------------------------------------------
 Center     Atomic      Atomic             Coordinates (Angstroms)
 Number     Number       Type             X           Y           Z
 ---------------------------------------------------------------------
      1         22           0       11.305079    9.752081   10.594095
      2         22           0       11.021495   11.519710    8.390599
      3         22           0       10.702827    8.842410    7.972860
      4         22           0        9.297171   11.157581   12.027084
      5         22           0        8.978569    8.480240   11.609302
      6         22           0        8.694931   10.247974    9.405898
      7          6           0       12.098967    9.947495    8.735317
      8          6           0       10.367281    9.583813   12.387508
      9          6           0       10.172184   11.447332   10.225820
     10          6           0        9.827793    8.552697    9.774206
     11          6           0        9.632662   10.416207    7.612496
     12          6           0        7.901063   10.052441   11.264793
 ---------------------------------------------------------------------
                    Distance matrix (angstroms):
                    1          2          3          4          5
     1  Ti   0.000000
     2  Ti   2.839071   0.000000
     3  Ti   2.839204   2.728368   0.000000
     4  Ti   2.839116   4.040848   4.875717   0.000000
     5  Ti   2.839168   4.875651   4.040785   2.728407   0.000000
     6  Ti   2.910429   2.839198   2.839164   2.839136   2.839071
     7  C    2.030640   1.936914   1.936946   4.488886   4.488821
     8  C    2.030790   4.488984   4.489030   1.936953   1.937008
     9  C    2.071944   2.023513   3.484685   2.023402   3.484591
    10  C    2.071983   3.484603   2.023479   3.484600   2.023366
    11  C    3.482524   1.937013   1.936996   4.488962   4.488905
    12  C    3.482438   4.488983   4.488973   1.936889   1.936885
                    6          7          8          9         10
     6  Ti   0.000000
     7  C    3.482446   0.000000
     8  C    3.482508   4.058263   0.000000
     9  C    2.071958   2.860700   2.860710   0.000000
    10  C    2.071953   2.860591   2.860698   2.949826   0.000000
    11  C    2.030747   2.750105   4.902375   2.860728   2.860723
    12  C    2.030751   4.902210   2.749970   2.860625   2.860659
                   11         12
    11  C    0.000000
    12  C    4.058329   0.000000
 Stoichiometry    C6Ti6
 Framework group  C1[X(C6Ti6)]
 Deg. of freedom    30
 Full point group                 C1      NOp   1
 Largest Abelian subgroup         C1      NOp   1
 Largest concise Abelian subgroup C1      NOp   1
                         Standard orientation:                         
 ---------------------------------------------------------------------
 Center     Atomic      Atomic             Coordinates (Angstroms)
 Number     Number       Type             X           Y           Z
 ---------------------------------------------------------------------
      1         22           0       -0.000013   -0.000225    1.455212
      2         22           0       -2.020411   -1.364191   -0.000093
      3         22           0       -2.020450    1.364177    0.000111
      4         22           0        2.020437   -1.364165   -0.000135
      5         22           0        2.020335    1.364242    0.000118
      6         22           0        0.000033    0.000166   -1.455216
      7          6           0       -2.029068   -0.000133    1.375009
      8          6           0        2.029195   -0.000127    1.375042
      9          6           0        0.000069   -1.474930   -0.000191
     10          6           0       -0.000003    1.474895    0.000175
     11          6           0       -2.029133    0.000108   -1.375096
     12          6           0        2.029196    0.000170   -1.374927
 ---------------------------------------------------------------------
 Rotational constants (GHZ):      0.7189256      0.3965726      0.3636661
 Standard basis: STO-3G (5D, 7F)
 There are   138 symmetry adapted basis functions of A   symmetry.
 Integral buffers will be    131072 words long.
 Raffenetti 2 integral format.
 Two-electron integral symmetry is turned on.
   138 basis functions,   432 primitive gaussians,   144 cartesian basis functions
    84 alpha electrons       84 beta electrons
       nuclear repulsion energy      2303.9366194196 Hartrees.
 NAtoms=   12 NActive=   12 NUniq=   12 SFac= 1.00D+00 NAtFMM=   50 NAOKFM=F Big=F
 One-electron integrals computed using PRISM.
 NBasis=   138 RedAO= T  NBF=   138
 NBsUse=   138 1.00D-06 NBFU=   138
 Harris functional with IExCor= 1009 diagonalized for initial guess.
 ExpMin= 1.16D-01 ExpMax= 1.03D+03 ExpMxC= 1.03D+03 IAcc=1 IRadAn=         1 AccDes= 0.00D+00
 HarFok:  IExCor= 1009 AccDes= 0.00D+00 IRadAn=         1 IDoV= 1
 ScaDFX=  1.000000  1.000000  1.000000  1.000000
 FoFCou: FMM=F IPFlag=           0 FMFlag=      100000 FMFlg1=           0
         NFxFlg=           0 DoJE=T BraDBF=F KetDBF=T FulRan=T
         Omega=  0.000000  0.000000  1.000000  0.000000  0.000000 ICntrl=     500 IOpCl=  0
         NMat0=    1 NMatS0=    1 NMatT0=    0 NMatD0=    1 NMtDS0=    0 NMtDT0=    0
         I1Cent=           4 NGrid=           0.
 Petite list used in FoFCou.
 Initial guess orbital symmetries:
       Occupied  (A) (A) (A) (A) (A) (A) (A) (A) (A) (A) (A) (A)
                 (A) (A) (A) (A) (A) (A) (A) (A) (A) (A) (A) (A)
                 (A) (A) (A) (A) (A) (A) (A) (A) (A) (A) (A) (A)
                 (A) (A) (A) (A) (A) (A) (A) (A) (A) (A) (A) (A)
                 (A) (A) (A) (A) (A) (A) (A) (A) (A) (A) (A) (A)
                 (A) (A) (A) (A) (A) (A) (A) (A) (A) (A) (A) (A)
                 (A) (A) (A) (A) (A) (A) (A) (A) (A) (A) (A) (A)
       Virtual   (A) (A) (A) (A) (A) (A) (A) (A) (A) (A) (A) (A)
                 (A) (A) (A) (A) (A) (A) (A) (A) (A) (A) (A) (A)
                 (A) (A) (A) (A) (A) (A) (A) (A) (A) (A) (A) (A)
                 (A) (A) (A) (A) (A) (A) (A) (A) (A) (A) (A) (A)
                 (A) (A) (A) (A) (A) (A)
 The electronic state of the initial guess is 1-A.
 Requested convergence on RMS density matrix=1.00D-08 within 128 cycles.
 Requested convergence on MAX density matrix=1.00D-06.
 Requested convergence on             energy=1.00D-06.
 No special actions if energy rises.
 EnCoef did   100 forward-backward iterations
 EnCoef did   100 forward-backward iterations
 EnCoef did   100 forward-backward iterations
 EnCoef did     3 forward-backward iterations
 Problem detected with inexpensive integrals.
 Switching to full accuracy and repeating last cycle.
 EnCoef did   100 forward-backward iterations
 EnCoef did   100 forward-backward iterations
 EnCoef did     4 forward-backward iterations
 EnCoef did     4 forward-backward iterations
 EnCoef did     5 forward-backward iterations
 EnCoef did     3 forward-backward iterations
 EnCoef did     5 forward-backward iterations
 Restarting incremental Fock formation.
 SCF Done:  E(RPBE-PBE) =  -5268.36384337     A.U. after   34 cycles
             Convg  =    0.4194D-08             -V/T =  2.0065

 **********************************************************************

            Population analysis using the SCF density.

 **********************************************************************

 Orbital symmetries:
       Occupied  (A) (A) (A) (A) (A) (A) (A) (A) (A) (A) (A) (A)
                 (A) (A) (A) (A) (A) (A) (A) (A) (A) (A) (A) (A)
                 (A) (A) (A) (A) (A) (A) (A) (A) (A) (A) (A) (A)
                 (A) (A) (A) (A) (A) (A) (A) (A) (A) (A) (A) (A)
                 (A) (A) (A) (A) (A) (A) (A) (A) (A) (A) (A) (A)
                 (A) (A) (A) (A) (A) (A) (A) (A) (A) (A) (A) (A)
                 (A) (A) (A) (A) (A) (A) (A) (A) (A) (A) (A) (A)
       Virtual   (A) (A) (A) (A) (A) (A) (A) (A) (A) (A) (A) (A)
                 (A) (A) (A) (A) (A) (A) (A) (A) (A) (A) (A) (A)
                 (A) (A) (A) (A) (A) (A) (A) (A) (A) (A) (A) (A)
                 (A) (A) (A) (A) (A) (A) (A) (A) (A) (A) (A) (A)
                 (A) (A) (A) (A) (A) (A)
 The electronic state is 1-A.
 Alpha  occ. eigenvalues -- -176.02454-176.02451-176.02449-176.02446-176.01223
 Alpha  occ. eigenvalues -- -176.01219 -19.29834 -19.29785 -19.29691 -19.29637
 Alpha  occ. eigenvalues --  -19.28853 -19.28674 -16.39977 -16.39971 -16.39960
 Alpha  occ. eigenvalues --  -16.39956 -16.39762 -16.39759 -16.39742 -16.39739
 Alpha  occ. eigenvalues --  -16.39672 -16.39670 -16.39667 -16.39666 -16.38886
 Alpha  occ. eigenvalues --  -16.38861 -16.38824 -16.38823 -16.38575 -16.38574
 Alpha  occ. eigenvalues --   -9.52020  -9.52013  -9.49761  -9.49757  -9.49749
 Alpha  occ. eigenvalues --   -9.49740  -2.28529  -2.28525  -2.28468  -2.28460
 Alpha  occ. eigenvalues --   -2.27646  -2.27634  -1.46536  -1.46498  -1.45863
 Alpha  occ. eigenvalues --   -1.45753  -1.45278  -1.45081  -1.44868  -1.44836
 Alpha  occ. eigenvalues --   -1.44833  -1.44792  -1.44715  -1.44637  -1.44560
 Alpha  occ. eigenvalues --   -1.44511  -1.44445  -1.44328  -1.43312  -1.43258
 Alpha  occ. eigenvalues --   -0.39960  -0.35284  -0.34839  -0.34061  -0.33506
 Alpha  occ. eigenvalues --   -0.31641  -0.14244  -0.13627  -0.12821  -0.12610
 Alpha  occ. eigenvalues --   -0.10388  -0.09667  -0.09233  -0.08211  -0.06609
 Alpha  occ. eigenvalues --   -0.05982  -0.05005  -0.04576  -0.03811  -0.03742
 Alpha  occ. eigenvalues --   -0.03424  -0.03237  -0.02128  -0.02070
 Alpha virt. eigenvalues --    0.03019   0.03945   0.04003   0.04200   0.06810
 Alpha virt. eigenvalues --    0.07518   0.08485   0.08806   0.09282   0.10041
 Alpha virt. eigenvalues --    0.10339   0.10865   0.12159   0.12191   0.12732
 Alpha virt. eigenvalues --    0.13419   0.13470   0.13914   0.16021   0.17375
 Alpha virt. eigenvalues --    0.18274   0.19094   0.20431   0.21748   0.23417
 Alpha virt. eigenvalues --    0.23802   0.24051   0.25507   0.25691   0.26037
 Alpha virt. eigenvalues --    0.28843   0.29139   0.29824   0.30581   0.48194
 Alpha virt. eigenvalues --    0.48378   0.49348   0.50685   0.53664   0.55669
 Alpha virt. eigenvalues --    0.56776   0.59299   0.60218   0.60723   0.61475
 Alpha virt. eigenvalues --    0.63041   0.64269   0.64332   0.71539   0.73204
 Alpha virt. eigenvalues --    0.73862   0.79413   0.80874   0.81826
          Condensed to atoms (all electrons):
              1          2          3          4          5          6
     1  Ti  20.316695   0.049861   0.049843   0.049857   0.049852   0.016490
     2  Ti   0.049861  20.495745   0.050033  -0.013221   0.000542   0.049850
     3  Ti   0.049843   0.050033  20.495744   0.000542  -0.013221   0.049854
     4  Ti   0.049857  -0.013221   0.000542  20.495713   0.050007   0.049853
     5  Ti   0.049852   0.000542  -0.013221   0.050007  20.495717   0.049861
     6  Ti   0.016490   0.049850   0.049854   0.049853   0.049861  20.316699
     7  C    0.328973   0.379344   0.379331   0.000007   0.000007  -0.003585
     8  C    0.328934   0.000007   0.000007   0.379347   0.379321  -0.003584
     9  C    0.253761   0.341598  -0.004433   0.341630  -0.004434   0.253762
    10  C    0.253747  -0.004434   0.341613  -0.004434   0.341647   0.253756
    11  C   -0.003584   0.379318   0.379327   0.000007   0.000007   0.328949
    12  C   -0.003584   0.000007   0.000007   0.379358   0.379360   0.328933
              7          8          9         10         11         12
     1  Ti   0.328973   0.328934   0.253761   0.253747  -0.003584  -0.003584
     2  Ti   0.379344   0.000007   0.341598  -0.004434   0.379318   0.000007
     3  Ti   0.379331   0.000007  -0.004433   0.341613   0.379327   0.000007
     4  Ti   0.000007   0.379347   0.341630  -0.004434   0.000007   0.379358
     5  Ti   0.000007   0.379321  -0.004434   0.341647   0.000007   0.379360
     6  Ti  -0.003585  -0.003584   0.253762   0.253756   0.328949   0.328933
     7  C    5.232220  -0.000050  -0.011187  -0.011190  -0.015574   0.000001
     8  C   -0.000050   5.232267  -0.011187  -0.011187   0.000001  -0.015580
     9  C   -0.011187  -0.011187   5.166960  -0.008840  -0.011187  -0.011189
    10  C   -0.011190  -0.011187  -0.008840   5.166946  -0.011187  -0.011188
    11  C   -0.015574   0.000001  -0.011187  -0.011187   5.232273  -0.000050
    12  C    0.000001  -0.015580  -0.011189  -0.011188  -0.000050   5.232218
 Mulliken atomic charges:
              1
     1  Ti   0.309154
     2  Ti   0.271350
     3  Ti   0.271353
     4  Ti   0.271333
     5  Ti   0.271333
     6  Ti   0.309161
     7  C   -0.278296
     8  C   -0.278296
     9  C   -0.295254
    10  C   -0.295246
    11  C   -0.278299
    12  C   -0.278294
 Sum of Mulliken atomic charges =   0.00000
 Mulliken charges with hydrogens summed into heavy atoms:
              1
     1  Ti   0.309154
     2  Ti   0.271350
     3  Ti   0.271353
     4  Ti   0.271333
     5  Ti   0.271333
     6  Ti   0.309161
     7  C   -0.278296
     8  C   -0.278296
     9  C   -0.295254
    10  C   -0.295246
    11  C   -0.278299
    12  C   -0.278294
 Sum of Mulliken charges with hydrogens summed into heavy atoms =   0.00000
 Electronic spatial extent (au):  <R**2>=           3054.3430
 Charge=              0.0000 electrons
 Dipole moment (field-independent basis, Debye):
    X=             -0.0011    Y=              0.0001    Z=             -0.0001  Tot=              0.0011
 Quadrupole moment (field-independent basis, Debye-Ang):
   XX=           -108.1440   YY=            -96.5807   ZZ=           -125.9128
   XY=             -0.0004   XZ=             -0.0021   YZ=              0.0016
 Traceless Quadrupole moment (field-independent basis, Debye-Ang):
   XX=              2.0685   YY=             13.6318   ZZ=            -15.7003
   XY=             -0.0004   XZ=             -0.0021   YZ=              0.0016
 Octapole moment (field-independent basis, Debye-Ang**2):
  XXX=             -0.0106  YYY=              0.0029  ZZZ=             -0.0011  XYY=             -0.0003
  XXY=             -0.0010  XXZ=              0.0009  XZZ=              0.0004  YZZ=             -0.0006
  YYZ=              0.0002  XYZ=              0.0012
 Hexadecapole moment (field-independent basis, Debye-Ang**3):
 XXXX=          -1946.5692 YYYY=           -790.1402 ZZZZ=           -725.6710 XXXY=             -0.0138
 XXXZ=             -0.0142 YYYX=              0.0046 YYYZ=              0.0097 ZZZX=             -0.0102
 ZZZY=             -0.0030 XXYY=           -273.3975 XXZZ=           -567.9407 YYZZ=           -276.4673
 XXYZ=              0.0303 YYXZ=             -0.0032 ZZXY=             -0.0010
 N-N= 2.303936619420D+03 E-N=-1.704584402360D+04  KE= 5.234138982627D+03
 Calling FoFJK, ICntrl=      2527 FMM=F ISym2X=0 I1Cent= 0 IOpClX= 0 NMat=1 NMatS=1 NMatT=0.
 ***** Axes restored to original set *****
 -------------------------------------------------------------------
 Center     Atomic                   Forces (Hartrees/Bohr)
 Number     Number              X              Y              Z
 -------------------------------------------------------------------
      1       22          -0.028463207    0.005377835   -0.012907166
      2       22          -0.015236682   -0.027371262    0.021945070
      3       22          -0.009304894    0.022247968    0.029700563
      4       22           0.009297499   -0.022230647   -0.029658831
      5       22           0.015217454    0.027370309   -0.021900463
      6       22           0.028444559   -0.005391883    0.012944240
      7        6           0.019676438   -0.003450735    0.007108540
      8        6           0.018236181   -0.003753593    0.010089075
      9        6           0.003254500    0.027177436    0.004207543
     10        6          -0.003226409   -0.027174753   -0.004269543
     11        6          -0.018205434    0.003742315   -0.010099466
     12        6          -0.019690005    0.003457010   -0.007159562
 -------------------------------------------------------------------
 Cartesian Forces:  Max     0.029700563 RMS     0.017629695

 GradGradGradGradGradGradGradGradGradGradGradGradGradGradGradGradGradGrad
 Berny optimization.
 Internal  Forces:  Max     0.010980936 RMS     0.005030549
 Search for a local minimum.
 Step number   1 out of a maximum of  100
 All quantities printed in internal units (Hartrees-Bohrs-Radians)
 Mixed Optimization -- RFO/linear search
 Second derivative matrix not updated -- first step.
 ITU=  0
     Eigenvalues ---    0.02243   0.02250   0.04552   0.05062   0.06996
     Eigenvalues ---    0.07305   0.07742   0.08439   0.08574   0.09241
     Eigenvalues ---    0.09452   0.09740   0.10438   0.11656   0.12651
     Eigenvalues ---    0.12911   0.13147   0.13560   0.13952   0.14141
     Eigenvalues ---    0.14338   0.14697   0.14837   0.15104   0.15790
     Eigenvalues ---    0.16131   0.16524   0.16663   0.17097   0.17629
 RFO step:  Lambda=-2.54805545D-02 EMin= 2.24329893D-02
 Linear search not attempted -- first point.
 Maximum step size (   0.300) exceeded in Quadratic search.
    -- Step size scaled by   0.726
 Iteration  1 RMS(Cart)=  0.01598665 RMS(Int)=  0.00030882
 Iteration  2 RMS(Cart)=  0.00016624 RMS(Int)=  0.00022068
 Iteration  3 RMS(Cart)=  0.00000003 RMS(Int)=  0.00022068
 Variable       Old X    -DE/DX   Delta X   Delta X   Delta X     New X
                                 (Linear)    (Quad)   (Total)
    R1        5.36507  -0.01097   0.00000  -0.06868  -0.06898   5.29609
    R2        5.36532  -0.01067   0.00000  -0.06777  -0.06812   5.29719
    R3        5.36515  -0.01098   0.00000  -0.06875  -0.06904   5.29611
    R4        5.36525  -0.01067   0.00000  -0.06778  -0.06814   5.29711
    R5        5.49991  -0.00572   0.00000  -0.04970  -0.04959   5.45033
    R6        3.83735  -0.00310   0.00000  -0.02944  -0.02930   3.80806
    R7        3.83764  -0.00314   0.00000  -0.02962  -0.02948   3.80816
    R8        3.91541   0.00780   0.00000   0.01515   0.01520   3.93061
    R9        3.91548   0.00824   0.00000   0.01648   0.01647   3.93195
   R10        5.15587  -0.01065   0.00000  -0.06378  -0.06406   5.09181
   R11        5.36531  -0.01068   0.00000  -0.06782  -0.06817   5.29714
   R12        3.66024   0.00657   0.00000   0.01850   0.01869   3.67893
   R13        3.82388  -0.00849   0.00000  -0.05215  -0.05172   3.77216
   R14        3.66042   0.00599   0.00000   0.01736   0.01764   3.67806
   R15        5.36524  -0.01098   0.00000  -0.06877  -0.06907   5.29618
   R16        3.66030   0.00602   0.00000   0.01745   0.01773   3.67803
   R17        3.82382  -0.00849   0.00000  -0.05213  -0.05170   3.77212
   R18        3.66039   0.00654   0.00000   0.01839   0.01858   3.67897
   R19        5.15594  -0.01065   0.00000  -0.06383  -0.06410   5.09184
   R20        5.36519  -0.01067   0.00000  -0.06772  -0.06808   5.29711
   R21        3.66031   0.00655   0.00000   0.01843   0.01862   3.67894
   R22        3.82368  -0.00846   0.00000  -0.05201  -0.05158   3.77209
   R23        3.66019   0.00603   0.00000   0.01751   0.01779   3.67798
   R24        5.36507  -0.01097   0.00000  -0.06866  -0.06896   5.29611
   R25        3.66041   0.00600   0.00000   0.01737   0.01765   3.67806
   R26        3.82361  -0.00846   0.00000  -0.05200  -0.05157   3.77203
   R27        3.66018   0.00657   0.00000   0.01853   0.01873   3.67891
   R28        3.91543   0.00824   0.00000   0.01648   0.01647   3.93190
   R29        3.91542   0.00780   0.00000   0.01514   0.01519   3.93062
   R30        3.83756  -0.00312   0.00000  -0.02956  -0.02942   3.80814
   R31        3.83756  -0.00313   0.00000  -0.02957  -0.02942   3.80814
    A1        1.58367  -0.00093   0.00000  -0.00402  -0.00418   1.57949
    A2        2.06528  -0.00117   0.00000  -0.00440  -0.00456   2.06073
    A3        2.33349   0.00292   0.00000   0.01391   0.01376   2.34725
    A4        1.55286   0.00177   0.00000   0.00784   0.00771   1.56057
    A5        2.06528  -0.00117   0.00000  -0.00440  -0.00455   2.06073
    A6        1.58357  -0.00104   0.00000  -0.00436  -0.00451   1.57907
    A7        2.33341   0.00262   0.00000   0.01314   0.01302   2.34643
    A8        1.55286   0.00177   0.00000   0.00784   0.00772   1.56058
    A9        2.33349   0.00292   0.00000   0.01392   0.01377   2.34725
   A10        1.55284   0.00177   0.00000   0.00786   0.00774   1.56057
   A11        2.33336   0.00263   0.00000   0.01317   0.01305   2.34641
   A12        1.55282   0.00178   0.00000   0.00787   0.00775   1.56057
   A13        1.53131   0.00439   0.00000   0.02097   0.02099   1.55230
   A14        1.53129   0.00439   0.00000   0.02098   0.02100   1.55229
   A15        1.54312   0.00329   0.00000   0.01538   0.01519   1.55832
   A16        1.54303   0.00304   0.00000   0.01477   0.01460   1.55763
   A17        1.54306   0.00330   0.00000   0.01542   0.01523   1.55829
   A18        1.54303   0.00304   0.00000   0.01478   0.01462   1.55765
   A19        1.58424   0.00609   0.00000   0.02580   0.02551   1.60974
   A20        1.59950   0.00447   0.00000   0.01929   0.01915   1.61865
   A21        1.62556   0.00521   0.00000   0.02133   0.02154   1.64711
   A22        1.59942   0.00428   0.00000   0.01886   0.01874   1.61816
   A23        1.61385   0.00546   0.00000   0.02258   0.02234   1.63619
   A24        1.57872   0.00747   0.00000   0.03411   0.03376   1.61248
   A25        1.61382   0.00545   0.00000   0.02255   0.02230   1.63612
   A26        1.59943   0.00428   0.00000   0.01884   0.01872   1.61815
   A27        1.62553   0.00521   0.00000   0.02134   0.02155   1.64708
   A28        1.59942   0.00448   0.00000   0.01933   0.01919   1.61861
   A29        1.61377   0.00545   0.00000   0.02257   0.02232   1.63609
   A30        1.57871   0.00747   0.00000   0.03412   0.03376   1.61247
   A31        1.61384   0.00545   0.00000   0.02258   0.02234   1.63618
   A32        1.59946   0.00447   0.00000   0.01931   0.01917   1.61863
   A33        1.62553   0.00521   0.00000   0.02135   0.02156   1.64709
   A34        1.59948   0.00428   0.00000   0.01882   0.01871   1.61818
   A35        1.61389   0.00545   0.00000   0.02255   0.02231   1.63621
   A36        1.57866   0.00747   0.00000   0.03415   0.03379   1.61245
   A37        1.61387   0.00544   0.00000   0.02251   0.02227   1.63613
   A38        1.59944   0.00428   0.00000   0.01884   0.01872   1.61816
   A39        1.62555   0.00521   0.00000   0.02134   0.02155   1.64710
   A40        1.59949   0.00447   0.00000   0.01929   0.01915   1.61864
   A41        1.61388   0.00544   0.00000   0.02252   0.02227   1.63615
   A42        1.57863   0.00747   0.00000   0.03416   0.03380   1.61244
   A43        1.61391   0.00545   0.00000   0.02254   0.02230   1.63621
   A44        1.53132   0.00438   0.00000   0.02096   0.02098   1.55230
   A45        1.53126   0.00439   0.00000   0.02099   0.02101   1.55228
   A46        1.58362  -0.00104   0.00000  -0.00437  -0.00452   1.57910
   A47        2.06526  -0.00117   0.00000  -0.00439  -0.00455   2.06071
   A48        1.55281   0.00177   0.00000   0.00786   0.00774   1.56056
   A49        2.33340   0.00263   0.00000   0.01316   0.01304   2.34644
   A50        2.06529  -0.00117   0.00000  -0.00440  -0.00456   2.06073
   A51        1.58362  -0.00092   0.00000  -0.00401  -0.00417   1.57945
   A52        1.55288   0.00177   0.00000   0.00785   0.00772   1.56059
   A53        2.33342   0.00293   0.00000   0.01393   0.01378   2.34721
   A54        1.55284   0.00178   0.00000   0.00785   0.00773   1.56057
   A55        2.33344   0.00262   0.00000   0.01314   0.01302   2.34646
   A56        1.55286   0.00177   0.00000   0.00785   0.00772   1.56058
   A57        2.33345   0.00292   0.00000   0.01391   0.01376   2.34721
   A58        1.58425   0.00609   0.00000   0.02580   0.02551   1.60975
   A59        1.54308   0.00303   0.00000   0.01475   0.01459   1.55767
   A60        1.54301   0.00304   0.00000   0.01479   0.01463   1.55764
   A61        1.54308   0.00329   0.00000   0.01538   0.01520   1.55828
   A62        1.54304   0.00330   0.00000   0.01542   0.01523   1.55827
   A63        3.03207  -0.01041   0.00000  -0.04268  -0.04310   2.98897
   A64        3.03213  -0.01041   0.00000  -0.04269  -0.04311   2.98902
    D1       -1.54811   0.00175   0.00000   0.00775   0.00772  -1.54039
    D2       -0.62658   0.00153   0.00000   0.00725   0.00720  -0.61938
    D3       -1.51073  -0.00213   0.00000  -0.01120  -0.01149  -1.52222
    D4        0.00449   0.00356   0.00000   0.01579   0.01560   0.02009
    D5        0.62671  -0.00126   0.00000  -0.00655  -0.00654   0.62017
    D6        1.54818  -0.00156   0.00000  -0.00728  -0.00727   1.54091
    D7        1.51086   0.00270   0.00000   0.01259   0.01282   1.52368
    D8       -0.00441  -0.00338   0.00000  -0.01534  -0.01517  -0.01958
    D9        1.54820  -0.00176   0.00000  -0.00781  -0.00778   1.54042
   D10        0.62669  -0.00154   0.00000  -0.00731  -0.00726   0.61942
   D11        1.51077   0.00213   0.00000   0.01117   0.01146   1.52224
   D12       -0.00442  -0.00357   0.00000  -0.01583  -0.01564  -0.02006
   D13       -0.62682   0.00127   0.00000   0.00661   0.00660  -0.62022
   D14       -1.54827   0.00157   0.00000   0.00734   0.00733  -1.54094
   D15       -1.51096  -0.00270   0.00000  -0.01254  -0.01277  -1.52373
   D16        0.00435   0.00338   0.00000   0.01536   0.01520   0.01955
   D17       -0.00006  -0.00036   0.00000  -0.00086  -0.00083  -0.00089
   D18        3.14155   0.00000   0.00000   0.00001   0.00001   3.14155
   D19       -3.14157   0.00000   0.00000   0.00000   0.00000  -3.14157
   D20        0.00004   0.00036   0.00000   0.00087   0.00084   0.00088
   D21       -0.00007   0.00000   0.00000  -0.00002  -0.00002  -0.00009
   D22        1.54816  -0.00156   0.00000  -0.00729  -0.00728   1.54088
   D23        0.62664  -0.00126   0.00000  -0.00654  -0.00652   0.62012
   D24       -0.00444  -0.00338   0.00000  -0.01533  -0.01516  -0.01960
   D25        1.51075   0.00271   0.00000   0.01262   0.01285   1.52360
   D26       -1.59424   0.00496   0.00000   0.02297   0.02235  -1.57189
   D27        0.00062  -0.00004   0.00000  -0.00001  -0.00001   0.00061
   D28       -0.78966  -0.00395   0.00000  -0.01795  -0.01806  -0.80773
   D29        0.79092   0.00401   0.00000   0.01819   0.01829   0.80922
   D30       -0.62662   0.00153   0.00000   0.00726   0.00721  -0.61942
   D31       -1.54814   0.00175   0.00000   0.00777   0.00774  -1.54040
   D32        0.00449   0.00357   0.00000   0.01579   0.01560   0.02009
   D33       -1.51072  -0.00213   0.00000  -0.01122  -0.01152  -1.52224
   D34        0.00047  -0.00004   0.00000   0.00000   0.00000   0.00047
   D35        0.79073   0.00402   0.00000   0.01822   0.01833   0.80906
   D36       -0.78984  -0.00394   0.00000  -0.01792  -0.01803  -0.80787
   D37        1.59414  -0.00495   0.00000  -0.02292  -0.02231   1.57184
   D38        0.00005   0.00000   0.00000   0.00003   0.00003   0.00007
   D39       -1.54817   0.00156   0.00000   0.00729   0.00729  -1.54089
   D40       -0.62671   0.00126   0.00000   0.00658   0.00657  -0.62015
   D41        0.00441   0.00338   0.00000   0.01534   0.01518   0.01958
   D42       -1.51087  -0.00269   0.00000  -0.01255  -0.01278  -1.52365
   D43        1.59410  -0.00494   0.00000  -0.02289  -0.02228   1.57182
   D44       -0.00060   0.00004   0.00000   0.00000   0.00000  -0.00060
   D45        0.78970   0.00394   0.00000   0.01793   0.01804   0.80774
   D46       -0.79084  -0.00402   0.00000  -0.01824  -0.01835  -0.80918
   D47        0.62675  -0.00154   0.00000  -0.00732  -0.00727   0.61948
   D48        1.54822  -0.00176   0.00000  -0.00780  -0.00777   1.54046
   D49       -0.00442  -0.00357   0.00000  -0.01582  -0.01563  -0.02005
   D50        1.51088   0.00212   0.00000   0.01114   0.01143   1.52232
   D51       -0.00046   0.00004   0.00000   0.00000  -0.00001  -0.00046
   D52       -0.79073  -0.00401   0.00000  -0.01822  -0.01832  -0.80905
   D53        0.78978   0.00395   0.00000   0.01796   0.01808   0.80786
   D54       -1.59416   0.00495   0.00000   0.02293   0.02232  -1.57185
         Item               Value     Threshold  Converged?
 Maximum Force            0.010981     0.000450     NO 
 RMS     Force            0.005031     0.000300     NO 
 Maximum Displacement     0.061961     0.001800     NO 
 RMS     Displacement     0.016005     0.001200     NO 
 Predicted change in Energy=-1.305971D-02
 GradGradGradGradGradGradGradGradGradGradGradGradGradGradGradGradGradGrad

                          Input orientation:                          
 ---------------------------------------------------------------------
 Center     Atomic      Atomic             Coordinates (Angstroms)
 Number     Number       Type             X           Y           Z
 ---------------------------------------------------------------------
      1         22           0       11.293365    9.754821   10.588834
      2         22           0       11.006615   11.500393    8.415094
      3         22           0       10.691969    8.856344    8.002575
      4         22           0        9.308028   11.143639   11.997405
      5         22           0        8.993423    8.499573   11.584853
      6         22           0        8.706639   10.245225    9.411169
      7          6           0       12.119551    9.940819    8.760282
      8          6           0       10.400070    9.579684   12.386705
      9          6           0       10.175001   11.471359   10.229526
     10          6           0        9.824986    8.528667    9.770474
     11          6           0        9.599912   10.420317    7.613295
     12          6           0        7.880464   10.059138   11.239766
 ---------------------------------------------------------------------
                    Distance matrix (angstroms):
                    1          2          3          4          5
     1  Ti   0.000000
     2  Ti   2.802569   0.000000
     3  Ti   2.803154   2.694470   0.000000
     4  Ti   2.802580   3.980631   4.806837   0.000000
     5  Ti   2.803112   4.806791   3.980585   2.694487   0.000000
     6  Ti   2.884188   2.803124   2.802617   2.803111   2.802578
     7  C    2.015138   1.946805   1.946329   4.453134   4.452872
     8  C    2.015190   4.453169   4.452979   1.946809   1.946346
     9  C    2.079987   1.996143   3.473452   1.996106   3.473406
    10  C    2.080698   3.473393   1.996121   3.473405   1.996075
    11  C    3.487765   1.946345   1.946828   4.452955   4.453129
    12  C    3.487724   4.452955   4.453165   1.946304   1.946794
                    6          7          8          9         10
     6  Ti   0.000000
     7  C    3.487733   0.000000
     8  C    3.487759   4.029637   0.000000
     9  C    2.080672   2.877934   2.877935   0.000000
    10  C    2.079992   2.877445   2.877503   2.998779   0.000000
    11  C    2.015178   2.809640   4.912469   2.877512   2.877919
    12  C    2.015182   4.912402   2.809583   2.877474   2.877903
                   11         12
    11  C    0.000000
    12  C    4.029670   0.000000
 Stoichiometry    C6Ti6
 Framework group  C1[X(C6Ti6)]
 Deg. of freedom    30
 Full point group                 C1      NOp   1
 Largest Abelian subgroup         C1      NOp   1
 Largest concise Abelian subgroup C1      NOp   1
                         Standard orientation:                         
 ---------------------------------------------------------------------
 Center     Atomic      Atomic             Coordinates (Angstroms)
 Number     Number       Type             X           Y           Z
 ---------------------------------------------------------------------
      1         22           0       -0.000008   -0.001263   -1.442091
      2         22           0        1.990302   -1.347238    0.000620
      3         22           0        1.990328    1.347232   -0.000634
      4         22           0       -1.990329   -1.347216    0.000644
      5         22           0       -1.990258    1.347271   -0.000636
      6         22           0       -0.000006    0.001214    1.442096
      7          6           0        2.014785   -0.000313   -1.404814
      8          6           0       -2.014853   -0.000304   -1.404807
      9          6           0       -0.000033   -1.499403    0.000796
     10          6           0        0.000013    1.499375   -0.000777
     11          6           0        2.014827    0.000301    1.404826
     12          6           0       -2.014843    0.000342    1.404777
 ---------------------------------------------------------------------
 Rotational constants (GHZ):      0.7258856      0.4047048      0.3725136
 Standard basis: STO-3G (5D, 7F)
 There are   138 symmetry adapted basis functions of A   symmetry.
 Integral buffers will be    131072 words long.
 Raffenetti 2 integral format.
 Two-electron integral symmetry is turned on.
   138 basis functions,   432 primitive gaussians,   144 cartesian basis functions
    84 alpha electrons       84 beta electrons
       nuclear repulsion energy      2321.3270430076 Hartrees.
 NAtoms=   12 NActive=   12 NUniq=   12 SFac= 1.00D+00 NAtFMM=   50 NAOKFM=F Big=F
 One-electron integrals computed using PRISM.
 NBasis=   138 RedAO= T  NBF=   138
 NBsUse=   138 1.00D-06 NBFU=   138
 Initial guess read from the read-write file.
 B after Tr=     0.000000    0.000000    0.000000
         Rot=    1.000000    0.000000    0.000000    0.000000 Ang=   0.00 deg.
 Initial guess orbital symmetries:
       Occupied  (A) (A) (A) (A) (A) (A) (A) (A) (A) (A) (A) (A)
                 (A) (A) (A) (A) (A) (A) (A) (A) (A) (A) (A) (A)
                 (A) (A) (A) (A) (A) (A) (A) (A) (A) (A) (A) (A)
                 (A) (A) (A) (A) (A) (A) (A) (A) (A) (A) (A) (A)
                 (A) (A) (A) (A) (A) (A) (A) (A) (A) (A) (A) (A)
                 (A) (A) (A) (A) (A) (A) (A) (A) (A) (A) (A) (A)
                 (A) (A) (A) (A) (A) (A) (A) (A) (A) (A) (A) (A)
       Virtual   (A) (A) (A) (A) (A) (A) (A) (A) (A) (A) (A) (A)
                 (A) (A) (A) (A) (A) (A) (A) (A) (A) (A) (A) (A)
                 (A) (A) (A) (A) (A) (A) (A) (A) (A) (A) (A) (A)
                 (A) (A) (A) (A) (A) (A) (A) (A) (A) (A) (A) (A)
                 (A) (A) (A) (A) (A) (A)
 Harris functional with IExCor= 1009 diagonalized for initial guess.
 ExpMin= 1.16D-01 ExpMax= 1.03D+03 ExpMxC= 1.03D+03 IAcc=1 IRadAn=         1 AccDes= 0.00D+00
 HarFok:  IExCor= 1009 AccDes= 0.00D+00 IRadAn=         1 IDoV= 1
 ScaDFX=  1.000000  1.000000  1.000000  1.000000
 FoFCou: FMM=F IPFlag=           0 FMFlag=      100000 FMFlg1=           0
         NFxFlg=           0 DoJE=T BraDBF=F KetDBF=T FulRan=T
         Omega=  0.000000  0.000000  1.000000  0.000000  0.000000 ICntrl=     500 IOpCl=  0
         NMat0=    1 NMatS0=    1 NMatT0=    0 NMatD0=    1 NMtDS0=    0 NMtDT0=    0
         I1Cent=           4 NGrid=           0.
 Petite list used in FoFCou.
 Requested convergence on RMS density matrix=1.00D-08 within 128 cycles.
 Requested convergence on MAX density matrix=1.00D-06.
 Requested convergence on             energy=1.00D-06.
 No special actions if energy rises.
 EnCoef did     2 forward-backward iterations
 EnCoef did     1 forward-backward iterations
 EnCoef did     5 forward-backward iterations
 EnCoef did     4 forward-backward iterations
 EnCoef did     6 forward-backward iterations
 EnCoef did     4 forward-backward iterations
 EnCoef did     5 forward-backward iterations
 EnCoef did     7 forward-backward iterations
 Initial convergence to 1.0D-05 achieved.  Increase integral accuracy.
 SCF Done:  E(RPBE-PBE) =  -5268.37863793     A.U. after   26 cycles
             Convg  =    0.4728D-08             -V/T =  2.0065
 Calling FoFJK, ICntrl=      2527 FMM=F ISym2X=0 I1Cent= 0 IOpClX= 0 NMat=1 NMatS=1 NMatT=0.
 ***** Axes restored to original set *****
 -------------------------------------------------------------------
 Center     Atomic                   Forces (Hartrees/Bohr)
 Number     Number              X              Y              Z
 -------------------------------------------------------------------
      1       22          -0.017111893    0.003008921   -0.007797705
      2       22          -0.008546286   -0.019837675    0.010565812
      3       22          -0.004209747    0.017171898    0.016310084
      4       22           0.004206622   -0.017162501   -0.016292556
      5       22           0.008536253    0.019839644   -0.010544901
      6       22           0.017103931   -0.003020436    0.007808777
      7        6           0.011489942   -0.001508789    0.001792593
      8        6           0.008803675   -0.002076290    0.007448265
      9        6           0.002599121    0.021980757    0.003404823
     10        6          -0.002585522   -0.021980666   -0.003428903
     11        6          -0.008791695    0.002072252   -0.007452406
     12        6          -0.011494402    0.001512885   -0.001813883
 -------------------------------------------------------------------
 Cartesian Forces:  Max     0.021980757 RMS     0.011291876

 GradGradGradGradGradGradGradGradGradGradGradGradGradGradGradGradGradGrad
 Berny optimization.
 Using GEDIIS/GDIIS optimizer.
 Internal  Forces:  Max     0.008302529 RMS     0.003173363
 Search for a local minimum.
 Step number   2 out of a maximum of  100
 All quantities printed in internal units (Hartrees-Bohrs-Radians)
 Mixed Optimization -- RFO/linear search
 Update second derivatives using D2CorX and points    1    2
 DE= -1.48D-02 DEPred=-1.31D-02 R= 1.13D+00
 SS=  1.41D+00  RLast= 3.14D-01 DXNew= 5.0454D-01 9.4166D-01
 Trust test= 1.13D+00 RLast= 3.14D-01 DXMaxT set to 5.05D-01
 ITU=  1  0
 Use linear search instead of GDIIS.
     Eigenvalues ---    0.02301   0.02314   0.04559   0.05127   0.06569
     Eigenvalues ---    0.07303   0.07360   0.07789   0.08544   0.09289
     Eigenvalues ---    0.09528   0.09807   0.10389   0.11729   0.12530
     Eigenvalues ---    0.12628   0.13135   0.13471   0.13714   0.13873
     Eigenvalues ---    0.14326   0.14473   0.14699   0.14849   0.15103
     Eigenvalues ---    0.15765   0.16107   0.16474   0.17084   0.18359
 RFO step:  Lambda=-3.00131378D-03 EMin= 2.30129509D-02
 Quartic linear search produced a step of  1.35438.
 Iteration  1 RMS(Cart)=  0.02340784 RMS(Int)=  0.00119039
 Iteration  2 RMS(Cart)=  0.00050057 RMS(Int)=  0.00098299
 Iteration  3 RMS(Cart)=  0.00000028 RMS(Int)=  0.00098299
 Variable       Old X    -DE/DX   Delta X   Delta X   Delta X     New X
                                 (Linear)    (Quad)   (Total)
    R1        5.29609  -0.00623  -0.09342   0.00279  -0.09237   5.20372
    R2        5.29719  -0.00608  -0.09227   0.00196  -0.09219   5.20501
    R3        5.29611  -0.00623  -0.09351   0.00286  -0.09238   5.20372
    R4        5.29711  -0.00608  -0.09228   0.00205  -0.09211   5.20500
    R5        5.45033  -0.00470  -0.06716  -0.01465  -0.08172   5.36860
    R6        3.80806   0.00000  -0.03968   0.02479  -0.01450   3.79356
    R7        3.80816  -0.00001  -0.03993   0.02493  -0.01462   3.79354
    R8        3.93061   0.00652   0.02058   0.03124   0.05232   3.98292
    R9        3.93195   0.00675   0.02230   0.02993   0.05250   3.98445
   R10        5.09181  -0.00782  -0.08676  -0.03544  -0.12260   4.96921
   R11        5.29714  -0.00608  -0.09233   0.00207  -0.09213   5.20500
   R12        3.67893   0.00294   0.02532  -0.01071   0.01539   3.69432
   R13        3.77216  -0.00314  -0.07005   0.02579  -0.04158   3.73058
   R14        3.67806   0.00272   0.02388  -0.00914   0.01577   3.69383
   R15        5.29618  -0.00623  -0.09354   0.00285  -0.09242   5.20376
   R16        3.67803   0.00272   0.02402  -0.00925   0.01579   3.69382
   R17        3.77212  -0.00314  -0.07002   0.02579  -0.04156   3.73056
   R18        3.67897   0.00294   0.02516  -0.01058   0.01536   3.69434
   R19        5.09184  -0.00782  -0.08681  -0.03539  -0.12261   4.96923
   R20        5.29711  -0.00608  -0.09220   0.00197  -0.09211   5.20500
   R21        3.67894   0.00294   0.02522  -0.01061   0.01540   3.69433
   R22        3.77209  -0.00313  -0.06986   0.02571  -0.04148   3.73062
   R23        3.67798   0.00273   0.02410  -0.00928   0.01584   3.69382
   R24        5.29611  -0.00622  -0.09340   0.00277  -0.09236   5.20375
   R25        3.67806   0.00272   0.02390  -0.00915   0.01578   3.69384
   R26        3.77203  -0.00313  -0.06985   0.02573  -0.04144   3.73059
   R27        3.67891   0.00295   0.02536  -0.01072   0.01542   3.69433
   R28        3.93190   0.00674   0.02231   0.02994   0.05252   3.98442
   R29        3.93062   0.00652   0.02058   0.03122   0.05230   3.98291
   R30        3.80814   0.00000  -0.03985   0.02488  -0.01458   3.79355
   R31        3.80814  -0.00001  -0.03985   0.02486  -0.01460   3.79354
    A1        1.57949   0.00006  -0.00566   0.01002   0.00367   1.58316
    A2        2.06073  -0.00036  -0.00617   0.00378  -0.00296   2.05776
    A3        2.34725   0.00201   0.01864   0.00678   0.02466   2.37191
    A4        1.56057   0.00149   0.01044   0.00567   0.01544   1.57601
    A5        2.06073  -0.00036  -0.00617   0.00377  -0.00296   2.05777
    A6        1.57907   0.00000  -0.00611   0.01034   0.00359   1.58265
    A7        2.34643   0.00187   0.01764   0.00761   0.02460   2.37103
    A8        1.56058   0.00149   0.01045   0.00564   0.01541   1.57599
    A9        2.34725   0.00201   0.01865   0.00677   0.02466   2.37191
   A10        1.56057   0.00149   0.01048   0.00565   0.01544   1.57602
   A11        2.34641   0.00187   0.01767   0.00760   0.02462   2.37103
   A12        1.56057   0.00149   0.01049   0.00561   0.01543   1.57600
   A13        1.55230   0.00261   0.02843   0.00288   0.03112   1.58341
   A14        1.55229   0.00261   0.02844   0.00287   0.03112   1.58341
   A15        1.55832   0.00190   0.02058   0.00178   0.02132   1.57963
   A16        1.55763   0.00178   0.01978   0.00249   0.02132   1.57895
   A17        1.55829   0.00190   0.02063   0.00176   0.02135   1.57964
   A18        1.55765   0.00178   0.01979   0.00247   0.02132   1.57897
   A19        1.60974   0.00490   0.03454   0.02014   0.05310   1.66284
   A20        1.61865   0.00269   0.02594   0.00482   0.03036   1.64901
   A21        1.64711   0.00415   0.02918   0.01734   0.04701   1.69412
   A22        1.61816   0.00260   0.02538   0.00532   0.03038   1.64854
   A23        1.63619   0.00396   0.03026   0.01297   0.04207   1.67826
   A24        1.61248   0.00436   0.04572   0.00812   0.05249   1.66496
   A25        1.63612   0.00395   0.03021   0.01295   0.04199   1.67811
   A26        1.61815   0.00260   0.02535   0.00534   0.03038   1.64853
   A27        1.64708   0.00415   0.02919   0.01735   0.04703   1.69411
   A28        1.61861   0.00269   0.02599   0.00481   0.03039   1.64900
   A29        1.63609   0.00396   0.03023   0.01296   0.04202   1.67812
   A30        1.61247   0.00436   0.04573   0.00811   0.05249   1.66496
   A31        1.63618   0.00396   0.03025   0.01297   0.04207   1.67824
   A32        1.61863   0.00269   0.02596   0.00481   0.03037   1.64900
   A33        1.64709   0.00415   0.02920   0.01734   0.04703   1.69412
   A34        1.61818   0.00260   0.02533   0.00534   0.03035   1.64853
   A35        1.63621   0.00396   0.03022   0.01298   0.04205   1.67826
   A36        1.61245   0.00436   0.04577   0.00809   0.05251   1.66496
   A37        1.63613   0.00395   0.03016   0.01298   0.04197   1.67811
   A38        1.61816   0.00260   0.02536   0.00533   0.03036   1.64853
   A39        1.64710   0.00415   0.02919   0.01734   0.04701   1.69411
   A40        1.61864   0.00269   0.02594   0.00483   0.03036   1.64900
   A41        1.63615   0.00395   0.03017   0.01296   0.04196   1.67811
   A42        1.61244   0.00436   0.04578   0.00808   0.05252   1.66496
   A43        1.63621   0.00396   0.03020   0.01300   0.04204   1.67824
   A44        1.55230   0.00261   0.02842   0.00288   0.03111   1.58341
   A45        1.55228   0.00261   0.02846   0.00286   0.03113   1.58341
   A46        1.57910   0.00000  -0.00612   0.01032   0.00356   1.58266
   A47        2.06071  -0.00036  -0.00616   0.00377  -0.00296   2.05776
   A48        1.56056   0.00149   0.01049   0.00562   0.01543   1.57598
   A49        2.34644   0.00187   0.01767   0.00757   0.02460   2.37104
   A50        2.06073  -0.00036  -0.00618   0.00377  -0.00297   2.05776
   A51        1.57945   0.00006  -0.00565   0.01003   0.00369   1.58314
   A52        1.56059   0.00149   0.01045   0.00565   0.01542   1.57602
   A53        2.34721   0.00201   0.01867   0.00677   0.02468   2.37189
   A54        1.56057   0.00149   0.01047   0.00563   0.01543   1.57599
   A55        2.34646   0.00187   0.01763   0.00759   0.02458   2.37104
   A56        1.56058   0.00149   0.01046   0.00567   0.01544   1.57603
   A57        2.34721   0.00201   0.01864   0.00680   0.02468   2.37189
   A58        1.60975   0.00490   0.03455   0.02013   0.05310   1.66285
   A59        1.55767   0.00178   0.01976   0.00248   0.02129   1.57896
   A60        1.55764   0.00178   0.01982   0.00246   0.02133   1.57897
   A61        1.55828   0.00190   0.02059   0.00179   0.02133   1.57962
   A62        1.55827   0.00191   0.02063   0.00177   0.02136   1.57963
   A63        2.98897  -0.00830  -0.05837  -0.03468  -0.09403   2.89494
   A64        2.98902  -0.00830  -0.05839  -0.03469  -0.09406   2.89496
    D1       -1.54039   0.00099   0.01045   0.00355   0.01379  -1.52660
    D2       -0.61938   0.00068   0.00975  -0.00105   0.00848  -0.61090
    D3       -1.52222  -0.00139  -0.01557   0.00036  -0.01621  -1.53843
    D4        0.02009   0.00249   0.02113   0.00914   0.02939   0.04949
    D5        0.62017  -0.00055  -0.00886   0.00031  -0.00843   0.61174
    D6        1.54091  -0.00090  -0.00985  -0.00407  -0.01380   1.52711
    D7        1.52368   0.00166   0.01737  -0.00191   0.01622   1.53990
    D8       -0.01958  -0.00241  -0.02055  -0.00962  -0.02937  -0.04895
    D9        1.54042  -0.00099  -0.01054  -0.00349  -0.01382   1.52660
   D10        0.61942  -0.00068  -0.00984   0.00109  -0.00852   0.61090
   D11        1.52224   0.00139   0.01553  -0.00033   0.01619   1.53843
   D12       -0.02006  -0.00249  -0.02118  -0.00912  -0.02942  -0.04947
   D13       -0.62022   0.00055   0.00894  -0.00036   0.00847  -0.61176
   D14       -1.54094   0.00090   0.00993   0.00402   0.01382  -1.52712
   D15       -1.52373  -0.00165  -0.01729   0.00188  -0.01617  -1.53990
   D16        0.01955   0.00241   0.02058   0.00960   0.02938   0.04894
   D17       -0.00089  -0.00017  -0.00112   0.00098  -0.00001  -0.00091
   D18        3.14155   0.00000   0.00001   0.00001   0.00003   3.14158
   D19       -3.14157   0.00000   0.00000  -0.00001  -0.00001  -3.14158
   D20        0.00088   0.00017   0.00114  -0.00098   0.00003   0.00091
   D21       -0.00009   0.00000  -0.00002  -0.00004  -0.00009  -0.00018
   D22        1.54088  -0.00090  -0.00987  -0.00404  -0.01378   1.52710
   D23        0.62012  -0.00055  -0.00884   0.00033  -0.00839   0.61173
   D24       -0.01960  -0.00241  -0.02054  -0.00962  -0.02935  -0.04896
   D25        1.52360   0.00166   0.01741  -0.00191   0.01626   1.53986
   D26       -1.57189   0.00289   0.03028   0.00346   0.03165  -1.54024
   D27        0.00061  -0.00001  -0.00001   0.00016   0.00017   0.00078
   D28       -0.80773  -0.00244  -0.02447  -0.00499  -0.03029  -0.83802
   D29        0.80922   0.00248   0.02478   0.00494   0.03051   0.83972
   D30       -0.61942   0.00068   0.00976  -0.00104   0.00850  -0.61092
   D31       -1.54040   0.00099   0.01048   0.00353   0.01380  -1.52661
   D32        0.02009   0.00249   0.02113   0.00914   0.02939   0.04948
   D33       -1.52224  -0.00140  -0.01560   0.00040  -0.01620  -1.53844
   D34        0.00047  -0.00001   0.00000   0.00018   0.00018   0.00066
   D35        0.80906   0.00248   0.02482   0.00492   0.03053   0.83960
   D36       -0.80787  -0.00244  -0.02442  -0.00501  -0.03027  -0.83814
   D37        1.57184  -0.00289  -0.03021  -0.00347  -0.03160   1.54024
   D38        0.00007   0.00000   0.00004   0.00004   0.00010   0.00018
   D39       -1.54089   0.00090   0.00987   0.00405   0.01379  -1.52710
   D40       -0.62015   0.00055   0.00889  -0.00036   0.00842  -0.61173
   D41        0.01958   0.00241   0.02056   0.00961   0.02936   0.04895
   D42       -1.52365  -0.00165  -0.01731   0.00186  -0.01622  -1.53987
   D43        1.57182  -0.00288  -0.03018  -0.00349  -0.03158   1.54024
   D44       -0.00060   0.00001   0.00000  -0.00016  -0.00018  -0.00078
   D45        0.80774   0.00244   0.02443   0.00501   0.03028   0.83802
   D46       -0.80918  -0.00248  -0.02485  -0.00490  -0.03054  -0.83972
   D47        0.61948  -0.00068  -0.00985   0.00107  -0.00856   0.61093
   D48        1.54046  -0.00099  -0.01052  -0.00354  -0.01385   1.52661
   D49       -0.02005  -0.00249  -0.02117  -0.00913  -0.02943  -0.04947
   D50        1.52232   0.00139   0.01548  -0.00034   0.01614   1.53845
   D51       -0.00046   0.00001  -0.00001  -0.00018  -0.00020  -0.00066
   D52       -0.80905  -0.00248  -0.02482  -0.00494  -0.03055  -0.83960
   D53        0.80786   0.00244   0.02448   0.00496   0.03028   0.83814
   D54       -1.57185   0.00289   0.03023   0.00347   0.03161  -1.54024
         Item               Value     Threshold  Converged?
 Maximum Force            0.008303     0.000450     NO 
 RMS     Force            0.003173     0.000300     NO 
 Maximum Displacement     0.108015     0.001800     NO 
 RMS     Displacement     0.023355     0.001200     NO 
 Predicted change in Energy=-9.687527D-03
 GradGradGradGradGradGradGradGradGradGradGradGradGradGradGradGradGradGrad

                          Input orientation:                          
 ---------------------------------------------------------------------
 Center     Atomic      Atomic             Coordinates (Angstroms)
 Number     Number       Type             X           Y           Z
 ---------------------------------------------------------------------
      1         22           0       11.273975    9.758537   10.580014
      2         22           0       10.989601   11.465765    8.438212
      3         22           0       10.682384    8.885407    8.035565
      4         22           0        9.317623   11.114584   11.964443
      5         22           0        9.010409    8.534216   11.561779
      6         22           0        8.726022   10.241480    9.419990
      7          6           0       12.153116    9.933232    8.783768
      8          6           0       10.440052    9.573415   12.396654
      9          6           0       10.181819   11.528506   10.238427
     10          6           0        9.818173    8.471508    9.761547
     11          6           0        9.559953   10.426573    7.603344
     12          6           0        7.846894   10.066757   11.216233
 ---------------------------------------------------------------------
                    Distance matrix (angstroms):
                    1          2          3          4          5
     1  Ti   0.000000
     2  Ti   2.753691   0.000000
     3  Ti   2.754371   2.629593   0.000000
     4  Ti   2.753692   3.918308   4.718886   0.000000
     5  Ti   2.754370   4.718882   3.918293   2.629604   0.000000
     6  Ti   2.840943   2.754369   2.753711   2.754367   2.753704
     7  C    2.007463   1.954951   1.954686   4.421799   4.421673
     8  C    2.007455   4.421793   4.421672   1.954957   1.954694
     9  C    2.107672   1.974138   3.476945   1.974157   3.476958
    10  C    2.108480   3.476929   1.974130   3.476946   1.974145
    11  C    3.499244   1.954691   1.954958   4.421681   4.421790
    12  C    3.499237   4.421677   4.421792   1.954687   1.954956
                    6          7          8          9         10
     6  Ti   0.000000
     7  C    3.499252   0.000000
     8  C    3.499248   4.014598   0.000000
     9  C    2.108464   2.923516   2.923527   0.000000
    10  C    2.107667   2.923123   2.923135   3.115268   0.000000
    11  C    2.007462   2.891588   4.947552   2.923121   2.923491
    12  C    2.007457   4.947551   2.891583   2.923130   2.923504
                   11         12
    11  C    0.000000
    12  C    4.014599   0.000000
 Stoichiometry    C6Ti6
 Framework group  C1[X(C6Ti6)]
 Deg. of freedom    30
 Full point group                 C1      NOp   1
 Largest Abelian subgroup         C1      NOp   1
 Largest concise Abelian subgroup C1      NOp   1
                         Standard orientation:                         
 ---------------------------------------------------------------------
 Center     Atomic      Atomic             Coordinates (Angstroms)
 Number     Number       Type             X           Y           Z
 ---------------------------------------------------------------------
      1         22           0       -0.000002   -0.001845   -1.420466
      2         22           0        1.959152   -1.314792    0.001046
      3         22           0        1.959149    1.314800   -0.001053
      4         22           0       -1.959156   -1.314795    0.001045
      5         22           0       -1.959144    1.314808   -0.001051
      6         22           0       -0.000005    0.001824    1.420474
      7          6           0        2.007301   -0.000953   -1.445792
      8          6           0       -2.007297   -0.000951   -1.445797
      9          6           0        0.000008   -1.557639    0.001428
     10          6           0        0.000011    1.557627   -0.001404
     11          6           0        2.007298    0.000959    1.445795
     12          6           0       -2.007302    0.000959    1.445785
 ---------------------------------------------------------------------
 Rotational constants (GHZ):      0.7392826      0.4131004      0.3830567
 Standard basis: STO-3G (5D, 7F)
 There are   138 symmetry adapted basis functions of A   symmetry.
 Integral buffers will be    131072 words long.
 Raffenetti 2 integral format.
 Two-electron integral symmetry is turned on.
   138 basis functions,   432 primitive gaussians,   144 cartesian basis functions
    84 alpha electrons       84 beta electrons
       nuclear repulsion energy      2342.5476453237 Hartrees.
 NAtoms=   12 NActive=   12 NUniq=   12 SFac= 1.00D+00 NAtFMM=   50 NAOKFM=F Big=F
 One-electron integrals computed using PRISM.
 NBasis=   138 RedAO= T  NBF=   138
 NBsUse=   138 1.00D-06 NBFU=   138
 Initial guess read from the read-write file.
 B after Tr=     0.000000    0.000000    0.000000
         Rot=    1.000000    0.000000    0.000000    0.000000 Ang=   0.00 deg.
 Initial guess orbital symmetries:
       Occupied  (A) (A) (A) (A) (A) (A) (A) (A) (A) (A) (A) (A)
                 (A) (A) (A) (A) (A) (A) (A) (A) (A) (A) (A) (A)
                 (A) (A) (A) (A) (A) (A) (A) (A) (A) (A) (A) (A)
                 (A) (A) (A) (A) (A) (A) (A) (A) (A) (A) (A) (A)
                 (A) (A) (A) (A) (A) (A) (A) (A) (A) (A) (A) (A)
                 (A) (A) (A) (A) (A) (A) (A) (A) (A) (A) (A) (A)
                 (A) (A) (A) (A) (A) (A) (A) (A) (A) (A) (A) (A)
       Virtual   (A) (A) (A) (A) (A) (A) (A) (A) (A) (A) (A) (A)
                 (A) (A) (A) (A) (A) (A) (A) (A) (A) (A) (A) (A)
                 (A) (A) (A) (A) (A) (A) (A) (A) (A) (A) (A) (A)
                 (A) (A) (A) (A) (A) (A) (A) (A) (A) (A) (A) (A)
                 (A) (A) (A) (A) (A) (A)
 Harris functional with IExCor= 1009 diagonalized for initial guess.
 ExpMin= 1.16D-01 ExpMax= 1.03D+03 ExpMxC= 1.03D+03 IAcc=1 IRadAn=         1 AccDes= 0.00D+00
 HarFok:  IExCor= 1009 AccDes= 0.00D+00 IRadAn=         1 IDoV= 1
 ScaDFX=  1.000000  1.000000  1.000000  1.000000
 FoFCou: FMM=F IPFlag=           0 FMFlag=      100000 FMFlg1=           0
         NFxFlg=           0 DoJE=T BraDBF=F KetDBF=T FulRan=T
         Omega=  0.000000  0.000000  1.000000  0.000000  0.000000 ICntrl=     500 IOpCl=  0
         NMat0=    1 NMatS0=    1 NMatT0=    0 NMatD0=    1 NMtDS0=    0 NMtDT0=    0
         I1Cent=           4 NGrid=           0.
 Petite list used in FoFCou.
 Requested convergence on RMS density matrix=1.00D-08 within 128 cycles.
 Requested convergence on MAX density matrix=1.00D-06.
 Requested convergence on             energy=1.00D-06.
 No special actions if energy rises.
 Initial convergence to 1.0D-05 achieved.  Increase integral accuracy.
 SCF Done:  E(RPBE-PBE) =  -5268.38830794     A.U. after   17 cycles
             Convg  =    0.4358D-08             -V/T =  2.0065
 Calling FoFJK, ICntrl=      2527 FMM=F ISym2X=0 I1Cent= 0 IOpClX= 0 NMat=1 NMatS=1 NMatT=0.
 ***** Axes restored to original set *****
 -------------------------------------------------------------------
 Center     Atomic                   Forces (Hartrees/Bohr)
 Number     Number              X              Y              Z
 -------------------------------------------------------------------
      1       22          -0.002102629    0.000126502   -0.000988042
      2       22           0.000819557    0.000002877   -0.001869639
      3       22           0.000909593    0.000365005   -0.001790678
      4       22          -0.000909904   -0.000364155    0.001783652
      5       22          -0.000819246    0.000003713    0.001864885
      6       22           0.002104825   -0.000130573    0.000980364
      7        6           0.001079015    0.000008244   -0.000262653
      8        6           0.000479103   -0.000116740    0.000993197
      9        6           0.000670131    0.005819292    0.000905679
     10        6          -0.000672074   -0.005822468   -0.000890924
     11        6          -0.000479855    0.000116997   -0.000992279
     12        6          -0.001078516   -0.000008693    0.000266438
 -------------------------------------------------------------------
 Cartesian Forces:  Max     0.005822468 RMS     0.001688629

 GradGradGradGradGradGradGradGradGradGradGradGradGradGradGradGradGradGrad
 Berny optimization.
 Using GEDIIS/GDIIS optimizer.
 Internal  Forces:  Max     0.001907724 RMS     0.000609910
 Search for a local minimum.
 Step number   3 out of a maximum of  100
 All quantities printed in internal units (Hartrees-Bohrs-Radians)
 Mixed Optimization -- En-DIIS/RFO-DIIS
 Update second derivatives using D2CorX and points    2    3
 DE= -9.67D-03 DEPred=-9.69D-03 R= 9.98D-01
 SS=  1.41D+00  RLast= 4.77D-01 DXNew= 8.4853D-01 1.4296D+00
 Trust test= 9.98D-01 RLast= 4.77D-01 DXMaxT set to 8.49D-01
 ITU=  1  1  0
 Use linear search instead of GDIIS.
     Eigenvalues ---    0.02481   0.02516   0.04593   0.05231   0.06924
     Eigenvalues ---    0.07352   0.07417   0.07856   0.08463   0.09393
     Eigenvalues ---    0.09627   0.09905   0.10293   0.11851   0.11866
     Eigenvalues ---    0.12589   0.13107   0.13440   0.13693   0.13708
     Eigenvalues ---    0.14302   0.14475   0.14694   0.14874   0.15095
     Eigenvalues ---    0.15716   0.16030   0.16375   0.16949   0.18440
 RFO step:  Lambda=-3.43202387D-04 EMin= 2.48103280D-02
 Quartic linear search produced a step of  0.07271.
 Iteration  1 RMS(Cart)=  0.00360323 RMS(Int)=  0.00006906
 Iteration  2 RMS(Cart)=  0.00000873 RMS(Int)=  0.00006762
 Iteration  3 RMS(Cart)=  0.00000000 RMS(Int)=  0.00006762
 Variable       Old X    -DE/DX   Delta X   Delta X   Delta X     New X
                                 (Linear)    (Quad)   (Total)
    R1        5.20372   0.00032  -0.00672   0.00624  -0.00060   5.20312
    R2        5.20501   0.00028  -0.00670   0.00550  -0.00134   5.20367
    R3        5.20372   0.00032  -0.00672   0.00623  -0.00061   5.20311
    R4        5.20500   0.00028  -0.00670   0.00549  -0.00134   5.20367
    R5        5.36860  -0.00187  -0.00594  -0.00886  -0.01483   5.35377
    R6        3.79356   0.00064  -0.00105   0.00428   0.00323   3.79679
    R7        3.79354   0.00064  -0.00106   0.00429   0.00323   3.79678
    R8        3.98292   0.00191   0.00380   0.01197   0.01585   3.99877
    R9        3.98445   0.00184   0.00382   0.01093   0.01481   3.99926
   R10        4.96921   0.00014  -0.00891   0.00556  -0.00336   4.96585
   R11        5.20500   0.00028  -0.00670   0.00550  -0.00133   5.20367
   R12        3.69432   0.00017   0.00112   0.00226   0.00342   3.69774
   R13        3.73058   0.00145  -0.00302   0.01160   0.00879   3.73937
   R14        3.69383   0.00020   0.00115   0.00254   0.00374   3.69757
   R15        5.20376   0.00032  -0.00672   0.00622  -0.00063   5.20313
   R16        3.69382   0.00020   0.00115   0.00256   0.00376   3.69758
   R17        3.73056   0.00145  -0.00302   0.01160   0.00879   3.73936
   R18        3.69434   0.00017   0.00112   0.00224   0.00340   3.69773
   R19        4.96923   0.00014  -0.00891   0.00555  -0.00338   4.96585
   R20        5.20500   0.00028  -0.00670   0.00550  -0.00133   5.20367
   R21        3.69433   0.00017   0.00112   0.00224   0.00340   3.69774
   R22        3.73062   0.00145  -0.00302   0.01156   0.00875   3.73937
   R23        3.69382   0.00020   0.00115   0.00256   0.00376   3.69758
   R24        5.20375   0.00032  -0.00671   0.00623  -0.00061   5.20314
   R25        3.69384   0.00020   0.00115   0.00254   0.00374   3.69758
   R26        3.73059   0.00145  -0.00301   0.01156   0.00876   3.73936
   R27        3.69433   0.00017   0.00112   0.00225   0.00341   3.69774
   R28        3.98442   0.00184   0.00382   0.01093   0.01482   3.99924
   R29        3.98291   0.00191   0.00380   0.01197   0.01584   3.99876
   R30        3.79355   0.00064  -0.00106   0.00429   0.00323   3.79679
   R31        3.79354   0.00065  -0.00106   0.00430   0.00324   3.79679
    A1        1.58316   0.00045   0.00027   0.00282   0.00304   1.58620
    A2        2.05776   0.00049  -0.00022   0.00334   0.00310   2.06086
    A3        2.37191   0.00043   0.00179   0.00223   0.00397   2.37588
    A4        1.57601   0.00066   0.00112   0.00387   0.00494   1.58095
    A5        2.05777   0.00049  -0.00022   0.00334   0.00310   2.06086
    A6        1.58265   0.00047   0.00026   0.00311   0.00333   1.58598
    A7        2.37103   0.00046   0.00179   0.00273   0.00448   2.37551
    A8        1.57599   0.00065   0.00112   0.00386   0.00492   1.58091
    A9        2.37191   0.00043   0.00179   0.00223   0.00397   2.37588
   A10        1.57602   0.00066   0.00112   0.00387   0.00493   1.58095
   A11        2.37103   0.00046   0.00179   0.00274   0.00448   2.37551
   A12        1.57600   0.00065   0.00112   0.00385   0.00491   1.58091
   A13        1.58341   0.00030   0.00226   0.00139   0.00364   1.58705
   A14        1.58341   0.00030   0.00226   0.00139   0.00364   1.58705
   A15        1.57963   0.00018   0.00155   0.00071   0.00218   1.58182
   A16        1.57895   0.00021   0.00155   0.00110   0.00258   1.58154
   A17        1.57964   0.00018   0.00155   0.00070   0.00218   1.58182
   A18        1.57897   0.00021   0.00155   0.00109   0.00257   1.58154
   A19        1.66284   0.00149   0.00386   0.00825   0.01198   1.67482
   A20        1.64901  -0.00022   0.00221  -0.00250  -0.00031   1.64870
   A21        1.69412   0.00085   0.00342   0.00414   0.00755   1.70167
   A22        1.64854  -0.00020   0.00221  -0.00222  -0.00003   1.64851
   A23        1.67826   0.00045   0.00306   0.00132   0.00429   1.68256
   A24        1.66496   0.00005   0.00382  -0.00071   0.00304   1.66801
   A25        1.67811   0.00045   0.00305   0.00136   0.00433   1.68243
   A26        1.64853  -0.00020   0.00221  -0.00222  -0.00002   1.64851
   A27        1.69411   0.00085   0.00342   0.00414   0.00755   1.70167
   A28        1.64900  -0.00022   0.00221  -0.00250  -0.00030   1.64870
   A29        1.67812   0.00045   0.00306   0.00135   0.00433   1.68244
   A30        1.66496   0.00005   0.00382  -0.00071   0.00304   1.66801
   A31        1.67824   0.00045   0.00306   0.00133   0.00430   1.68254
   A32        1.64900  -0.00022   0.00221  -0.00249  -0.00030   1.64870
   A33        1.69412   0.00085   0.00342   0.00414   0.00756   1.70167
   A34        1.64853  -0.00020   0.00221  -0.00222  -0.00002   1.64851
   A35        1.67826   0.00045   0.00306   0.00132   0.00430   1.68256
   A36        1.66496   0.00005   0.00382  -0.00071   0.00305   1.66801
   A37        1.67811   0.00045   0.00305   0.00136   0.00433   1.68243
   A38        1.64853  -0.00020   0.00221  -0.00221  -0.00002   1.64851
   A39        1.69411   0.00085   0.00342   0.00414   0.00756   1.70167
   A40        1.64900  -0.00022   0.00221  -0.00249  -0.00030   1.64870
   A41        1.67811   0.00045   0.00305   0.00136   0.00433   1.68244
   A42        1.66496   0.00005   0.00382  -0.00070   0.00305   1.66801
   A43        1.67824   0.00045   0.00306   0.00132   0.00430   1.68254
   A44        1.58341   0.00030   0.00226   0.00139   0.00364   1.58704
   A45        1.58341   0.00030   0.00226   0.00139   0.00364   1.58704
   A46        1.58266   0.00047   0.00026   0.00310   0.00332   1.58598
   A47        2.05776   0.00049  -0.00021   0.00334   0.00310   2.06086
   A48        1.57598   0.00065   0.00112   0.00386   0.00492   1.58091
   A49        2.37104   0.00046   0.00179   0.00273   0.00447   2.37551
   A50        2.05776   0.00049  -0.00022   0.00334   0.00310   2.06086
   A51        1.58314   0.00045   0.00027   0.00282   0.00305   1.58619
   A52        1.57602   0.00066   0.00112   0.00387   0.00494   1.58095
   A53        2.37189   0.00043   0.00179   0.00223   0.00398   2.37587
   A54        1.57599   0.00065   0.00112   0.00385   0.00491   1.58091
   A55        2.37104   0.00046   0.00179   0.00273   0.00447   2.37551
   A56        1.57603   0.00066   0.00112   0.00386   0.00493   1.58095
   A57        2.37189   0.00043   0.00179   0.00223   0.00398   2.37586
   A58        1.66285   0.00149   0.00386   0.00825   0.01198   1.67483
   A59        1.57896   0.00021   0.00155   0.00109   0.00258   1.58154
   A60        1.57897   0.00021   0.00155   0.00108   0.00257   1.58154
   A61        1.57962   0.00018   0.00155   0.00071   0.00219   1.58181
   A62        1.57963   0.00018   0.00155   0.00070   0.00218   1.58181
   A63        2.89494  -0.00169  -0.00684  -0.00828  -0.01510   2.87984
   A64        2.89496  -0.00169  -0.00684  -0.00829  -0.01511   2.87985
    D1       -1.52660  -0.00003   0.00100  -0.00027   0.00072  -1.52588
    D2       -0.61090   0.00004   0.00062   0.00027   0.00087  -0.61002
    D3       -1.53843  -0.00035  -0.00118  -0.00195  -0.00320  -1.54163
    D4        0.04949   0.00064   0.00214   0.00366   0.00574   0.05523
    D5        0.61174  -0.00007  -0.00061  -0.00076  -0.00136   0.61038
    D6        1.52711   0.00001  -0.00100  -0.00003  -0.00102   1.52609
    D7        1.53990   0.00029   0.00118   0.00110   0.00233   1.54223
    D8       -0.04895  -0.00065  -0.00214  -0.00394  -0.00602  -0.05497
    D9        1.52660   0.00003  -0.00101   0.00026  -0.00072   1.52588
   D10        0.61090  -0.00004  -0.00062  -0.00027  -0.00088   0.61002
   D11        1.53843   0.00035   0.00118   0.00195   0.00320   1.54163
   D12       -0.04947  -0.00064  -0.00214  -0.00367  -0.00575  -0.05523
   D13       -0.61176   0.00007   0.00062   0.00076   0.00137  -0.61038
   D14       -1.52712  -0.00001   0.00100   0.00004   0.00103  -1.52609
   D15       -1.53990  -0.00029  -0.00118  -0.00109  -0.00233  -1.54223
   D16        0.04894   0.00066   0.00214   0.00396   0.00604   0.05497
   D17       -0.00091   0.00004   0.00000   0.00053   0.00054  -0.00037
   D18        3.14158   0.00000   0.00000   0.00000   0.00001   3.14159
   D19       -3.14158   0.00000   0.00000  -0.00001  -0.00001  -3.14158
   D20        0.00091  -0.00004   0.00000  -0.00053  -0.00054   0.00037
   D21       -0.00018   0.00000  -0.00001   0.00004   0.00003  -0.00015
   D22        1.52710   0.00001  -0.00100  -0.00003  -0.00102   1.52608
   D23        0.61173  -0.00007  -0.00061  -0.00075  -0.00136   0.61037
   D24       -0.04896  -0.00065  -0.00213  -0.00395  -0.00602  -0.05498
   D25        1.53986   0.00029   0.00118   0.00110   0.00234   1.54221
   D26       -1.54024   0.00011   0.00230  -0.00019   0.00203  -1.53821
   D27        0.00078   0.00000   0.00001  -0.00018  -0.00017   0.00062
   D28       -0.83802  -0.00008  -0.00220  -0.00003  -0.00229  -0.84031
   D29        0.83972   0.00008   0.00222  -0.00042   0.00185   0.84158
   D30       -0.61092   0.00004   0.00062   0.00028   0.00089  -0.61003
   D31       -1.52661  -0.00003   0.00100  -0.00026   0.00073  -1.52588
   D32        0.04948   0.00064   0.00214   0.00367   0.00575   0.05523
   D33       -1.53844  -0.00034  -0.00118  -0.00194  -0.00319  -1.54163
   D34        0.00066   0.00000   0.00001  -0.00016  -0.00015   0.00051
   D35        0.83960   0.00008   0.00222  -0.00040   0.00187   0.84147
   D36       -0.83814  -0.00008  -0.00220  -0.00001  -0.00227  -0.84041
   D37        1.54024  -0.00011  -0.00230   0.00019  -0.00202   1.53822
   D38        0.00018   0.00000   0.00001  -0.00004  -0.00003   0.00015
   D39       -1.52710  -0.00001   0.00100   0.00003   0.00102  -1.52608
   D40       -0.61173   0.00007   0.00061   0.00075   0.00136  -0.61037
   D41        0.04895   0.00066   0.00213   0.00395   0.00603   0.05498
   D42       -1.53987  -0.00029  -0.00118  -0.00110  -0.00234  -1.54221
   D43        1.54024  -0.00011  -0.00230   0.00019  -0.00202   1.53822
   D44       -0.00078   0.00000  -0.00001   0.00018   0.00017  -0.00062
   D45        0.83802   0.00008   0.00220   0.00003   0.00229   0.84030
   D46       -0.83972  -0.00008  -0.00222   0.00042  -0.00186  -0.84158
   D47        0.61093  -0.00004  -0.00062  -0.00028  -0.00089   0.61003
   D48        1.52661   0.00003  -0.00101   0.00026  -0.00073   1.52588
   D49       -0.04947  -0.00064  -0.00214  -0.00368  -0.00576  -0.05523
   D50        1.53845   0.00034   0.00117   0.00193   0.00318   1.54163
   D51       -0.00066   0.00000  -0.00001   0.00017   0.00015  -0.00051
   D52       -0.83960  -0.00008  -0.00222   0.00041  -0.00187  -0.84147
   D53        0.83814   0.00008   0.00220   0.00002   0.00228   0.84041
   D54       -1.54024   0.00011   0.00230  -0.00019   0.00203  -1.53821
         Item               Value     Threshold  Converged?
 Maximum Force            0.001908     0.000450     NO 
 RMS     Force            0.000610     0.000300     NO 
 Maximum Displacement     0.026905     0.001800     NO 
 RMS     Displacement     0.003602     0.001200     NO 
 Predicted change in Energy=-2.187947D-04
 GradGradGradGradGradGradGradGradGradGradGradGradGradGradGradGradGradGrad

                          Input orientation:                          
 ---------------------------------------------------------------------
 Center     Atomic      Atomic             Coordinates (Angstroms)
 Number     Number       Type             X           Y           Z
 ---------------------------------------------------------------------
      1         22           0       11.270413    9.758836   10.578353
      2         22           0       10.990630   11.465143    8.435624
      3         22           0       10.683665    8.886521    8.033267
      4         22           0        9.316343   11.113470   11.966735
      5         22           0        9.009380    8.534847   11.564370
      6         22           0        8.729585   10.241173    9.421644
      7          6           0       12.156875    9.932955    8.783736
      8          6           0       10.442439    9.572849   12.399512
      9          6           0       10.183511   11.542737   10.240655
     10          6           0        9.816475    8.457270    9.759334
     11          6           0        9.557573   10.427142    7.600484
     12          6           0        7.843133   10.067037   11.216264
 ---------------------------------------------------------------------
                    Distance matrix (angstroms):
                    1          2          3          4          5
     1  Ti   0.000000
     2  Ti   2.753371   0.000000
     3  Ti   2.753664   2.627815   0.000000
     4  Ti   2.753367   3.923730   4.722397   0.000000
     5  Ti   2.753661   4.722398   3.923722   2.627817   0.000000
     6  Ti   2.833096   2.753664   2.753380   2.753666   2.753381
     7  C    2.009174   1.956760   1.956675   4.426479   4.426438
     8  C    2.009167   4.426477   4.426435   1.956758   1.956673
     9  C    2.116058   1.978788   3.489727   1.978788   3.489729
    10  C    2.116318   3.489720   1.978783   3.489721   1.978782
    11  C    3.499737   1.956670   1.956757   4.426442   4.426476
    12  C    3.499738   4.426443   4.426478   1.956675   1.956762
                    6          7          8          9         10
     6  Ti   0.000000
     7  C    3.499749   0.000000
     8  C    3.499746   4.017810   0.000000
     9  C    2.116305   2.933969   2.933968   0.000000
    10  C    2.116051   2.933754   2.933750   3.144279   0.000000
    11  C    2.009172   2.898392   4.954137   2.933744   2.933949
    12  C    2.009174   4.954144   2.898394   2.933747   2.933952
                   11         12
    11  C    0.000000
    12  C    4.017816   0.000000
 Stoichiometry    C6Ti6
 Framework group  C1[X(C6Ti6)]
 Deg. of freedom    30
 Full point group                 C1      NOp   1
 Largest Abelian subgroup         C1      NOp   1
 Largest concise Abelian subgroup C1      NOp   1
                         Standard orientation:                         
 ---------------------------------------------------------------------
 Center     Atomic      Atomic             Coordinates (Angstroms)
 Number     Number       Type             X           Y           Z
 ---------------------------------------------------------------------
      1         22           0       -0.000003   -0.000769   -1.416544
      2         22           0        1.961865   -1.313904    0.000425
      3         22           0        1.961861    1.313910   -0.000430
      4         22           0       -1.961864   -1.313906    0.000424
      5         22           0       -1.961861    1.313911   -0.000429
      6         22           0        0.000001    0.000758    1.416551
      7          6           0        2.008906   -0.000405   -1.449201
      8          6           0       -2.008904   -0.000405   -1.449198
      9          6           0        0.000001   -1.572143    0.000666
     10          6           0        0.000000    1.572136   -0.000644
     11          6           0        2.008908    0.000410    1.449191
     12          6           0       -2.008908    0.000408    1.449197
 ---------------------------------------------------------------------
 Rotational constants (GHZ):      0.7392331      0.4125085      0.3821906
 Standard basis: STO-3G (5D, 7F)
 There are   138 symmetry adapted basis functions of A   symmetry.
 Integral buffers will be    131072 words long.
 Raffenetti 2 integral format.
 Two-electron integral symmetry is turned on.
   138 basis functions,   432 primitive gaussians,   144 cartesian basis functions
    84 alpha electrons       84 beta electrons
       nuclear repulsion energy      2340.8389102686 Hartrees.
 NAtoms=   12 NActive=   12 NUniq=   12 SFac= 1.00D+00 NAtFMM=   50 NAOKFM=F Big=F
 One-electron integrals computed using PRISM.
 NBasis=   138 RedAO= T  NBF=   138
 NBsUse=   138 1.00D-06 NBFU=   138
 Initial guess read from the read-write file.
 B after Tr=     0.000000    0.000000    0.000000
         Rot=    1.000000    0.000000    0.000000    0.000000 Ang=   0.00 deg.
 Initial guess orbital symmetries:
       Occupied  (A) (A) (A) (A) (A) (A) (A) (A) (A) (A) (A) (A)
                 (A) (A) (A) (A) (A) (A) (A) (A) (A) (A) (A) (A)
                 (A) (A) (A) (A) (A) (A) (A) (A) (A) (A) (A) (A)
                 (A) (A) (A) (A) (A) (A) (A) (A) (A) (A) (A) (A)
                 (A) (A) (A) (A) (A) (A) (A) (A) (A) (A) (A) (A)
                 (A) (A) (A) (A) (A) (A) (A) (A) (A) (A) (A) (A)
                 (A) (A) (A) (A) (A) (A) (A) (A) (A) (A) (A) (A)
       Virtual   (A) (A) (A) (A) (A) (A) (A) (A) (A) (A) (A) (A)
                 (A) (A) (A) (A) (A) (A) (A) (A) (A) (A) (A) (A)
                 (A) (A) (A) (A) (A) (A) (A) (A) (A) (A) (A) (A)
                 (A) (A) (A) (A) (A) (A) (A) (A) (A) (A) (A) (A)
                 (A) (A) (A) (A) (A) (A)
 Harris functional with IExCor= 1009 diagonalized for initial guess.
 ExpMin= 1.16D-01 ExpMax= 1.03D+03 ExpMxC= 1.03D+03 IAcc=1 IRadAn=         1 AccDes= 0.00D+00
 HarFok:  IExCor= 1009 AccDes= 0.00D+00 IRadAn=         1 IDoV= 1
 ScaDFX=  1.000000  1.000000  1.000000  1.000000
 FoFCou: FMM=F IPFlag=           0 FMFlag=      100000 FMFlg1=           0
         NFxFlg=           0 DoJE=T BraDBF=F KetDBF=T FulRan=T
         Omega=  0.000000  0.000000  1.000000  0.000000  0.000000 ICntrl=     500 IOpCl=  0
         NMat0=    1 NMatS0=    1 NMatT0=    0 NMatD0=    1 NMtDS0=    0 NMtDT0=    0
         I1Cent=           4 NGrid=           0.
 Petite list used in FoFCou.
 Requested convergence on RMS density matrix=1.00D-08 within 128 cycles.
 Requested convergence on MAX density matrix=1.00D-06.
 Requested convergence on             energy=1.00D-06.
 No special actions if energy rises.
 Initial convergence to 1.0D-05 achieved.  Increase integral accuracy.
 SCF Done:  E(RPBE-PBE) =  -5268.38857175     A.U. after   14 cycles
             Convg  =    0.4095D-08             -V/T =  2.0065
 Calling FoFJK, ICntrl=      2527 FMM=F ISym2X=0 I1Cent= 0 IOpClX= 0 NMat=1 NMatS=1 NMatT=0.
 ***** Axes restored to original set *****
 -------------------------------------------------------------------
 Center     Atomic                   Forces (Hartrees/Bohr)
 Number     Number              X              Y              Z
 -------------------------------------------------------------------
      1       22          -0.001654395    0.000206497   -0.000766963
      2       22           0.000183441    0.000399364   -0.000282894
      3       22           0.000131880   -0.000332236   -0.000380525
      4       22          -0.000133674    0.000332594    0.000379349
      5       22          -0.000185079   -0.000396648    0.000282831
      6       22           0.001654872   -0.000208903    0.000764814
      7        6          -0.000630689    0.000136353   -0.000153023
      8        6          -0.000528688    0.000157401   -0.000365047
      9        6           0.000177756    0.001437025    0.000227739
     10        6          -0.000174278   -0.001438425   -0.000225955
     11        6           0.000527836   -0.000156757    0.000365147
     12        6           0.000631018   -0.000136265    0.000154527
 -------------------------------------------------------------------
 Cartesian Forces:  Max     0.001654872 RMS     0.000620892

 GradGradGradGradGradGradGradGradGradGradGradGradGradGradGradGradGradGrad
 Berny optimization.
 Using GEDIIS/GDIIS optimizer.
 Internal  Forces:  Max     0.001082621 RMS     0.000221511
 Search for a local minimum.
 Step number   4 out of a maximum of  100
 All quantities printed in internal units (Hartrees-Bohrs-Radians)
 Mixed Optimization -- En-DIIS/RFO-DIIS
 Swaping is turned off.
 Update second derivatives using D2CorX and points    2    3    4
 DE= -2.64D-04 DEPred=-2.19D-04 R= 1.21D+00
 SS=  1.41D+00  RLast= 6.10D-02 DXNew= 1.4270D+00 1.8313D-01
 Trust test= 1.21D+00 RLast= 6.10D-02 DXMaxT set to 8.49D-01
 ITU=  1  1  1  0
     Eigenvalues ---    0.02515   0.02557   0.04600   0.05246   0.06080
     Eigenvalues ---    0.07437   0.07834   0.07922   0.08443   0.09405
     Eigenvalues ---    0.09634   0.09912   0.10277   0.10362   0.11875
     Eigenvalues ---    0.12584   0.13103   0.13459   0.13680   0.13744
     Eigenvalues ---    0.14303   0.14695   0.14769   0.14877   0.15093
     Eigenvalues ---    0.15699   0.16003   0.16349   0.16899   0.17624
 En-DIIS/RFO-DIIS IScMMF=        0 using points:     4    3
 RFO step:  Lambda=-2.28463363D-05.
 DidBck=F Rises=F RFO-DIIS coefs:    1.27933   -0.27933
 Iteration  1 RMS(Cart)=  0.00176555 RMS(Int)=  0.00000951
 Iteration  2 RMS(Cart)=  0.00000190 RMS(Int)=  0.00000887
 Iteration  3 RMS(Cart)=  0.00000000 RMS(Int)=  0.00000887
 Variable       Old X    -DE/DX   Delta X   Delta X   Delta X     New X
                                  (DIIS)     (GDIIS)  (Total)
    R1        5.20312  -0.00001  -0.00017  -0.00163  -0.00181   5.20130
    R2        5.20367  -0.00003  -0.00037  -0.00188  -0.00226   5.20141
    R3        5.20311  -0.00001  -0.00017  -0.00162  -0.00180   5.20131
    R4        5.20367  -0.00003  -0.00037  -0.00187  -0.00226   5.20141
    R5        5.35377  -0.00108  -0.00414  -0.00963  -0.01379   5.33999
    R6        3.79679  -0.00009   0.00090  -0.00104  -0.00014   3.79665
    R7        3.79678  -0.00009   0.00090  -0.00102  -0.00012   3.79665
    R8        3.99877   0.00043   0.00443   0.00036   0.00481   4.00358
    R9        3.99926   0.00040   0.00414   0.00005   0.00421   4.00347
   R10        4.96585   0.00046  -0.00094   0.00547   0.00452   4.97037
   R11        5.20367  -0.00003  -0.00037  -0.00187  -0.00225   5.20142
   R12        3.69774  -0.00031   0.00095  -0.00208  -0.00112   3.69662
   R13        3.73937   0.00031   0.00245  -0.00056   0.00191   3.74128
   R14        3.69757  -0.00028   0.00104  -0.00197  -0.00092   3.69665
   R15        5.20313  -0.00001  -0.00017  -0.00163  -0.00181   5.20132
   R16        3.69758  -0.00029   0.00105  -0.00198  -0.00093   3.69665
   R17        3.73936   0.00031   0.00246  -0.00056   0.00192   3.74127
   R18        3.69773  -0.00030   0.00095  -0.00206  -0.00111   3.69662
   R19        4.96585   0.00046  -0.00094   0.00546   0.00451   4.97037
   R20        5.20367  -0.00003  -0.00037  -0.00188  -0.00226   5.20142
   R21        3.69774  -0.00031   0.00095  -0.00207  -0.00112   3.69662
   R22        3.73937   0.00031   0.00244  -0.00056   0.00191   3.74128
   R23        3.69758  -0.00029   0.00105  -0.00198  -0.00093   3.69665
   R24        5.20314  -0.00001  -0.00017  -0.00163  -0.00182   5.20132
   R25        3.69758  -0.00028   0.00104  -0.00197  -0.00093   3.69665
   R26        3.73936   0.00031   0.00245  -0.00055   0.00192   3.74127
   R27        3.69774  -0.00031   0.00095  -0.00208  -0.00112   3.69662
   R28        3.99924   0.00040   0.00414   0.00005   0.00421   4.00345
   R29        3.99876   0.00043   0.00443   0.00036   0.00481   4.00356
   R30        3.79679  -0.00009   0.00090  -0.00102  -0.00013   3.79666
   R31        3.79679  -0.00009   0.00091  -0.00103  -0.00013   3.79666
    A1        1.58620   0.00012   0.00085   0.00019   0.00104   1.58724
    A2        2.06086   0.00024   0.00087   0.00175   0.00262   2.06349
    A3        2.37588   0.00004   0.00111  -0.00005   0.00105   2.37693
    A4        1.58095   0.00030   0.00138   0.00218   0.00355   1.58450
    A5        2.06086   0.00024   0.00087   0.00175   0.00262   2.06348
    A6        1.58598   0.00013   0.00093   0.00029   0.00121   1.58720
    A7        2.37551   0.00006   0.00125   0.00012   0.00137   2.37688
    A8        1.58091   0.00030   0.00137   0.00218   0.00355   1.58445
    A9        2.37588   0.00004   0.00111  -0.00005   0.00105   2.37693
   A10        1.58095   0.00030   0.00138   0.00218   0.00355   1.58450
   A11        2.37551   0.00006   0.00125   0.00012   0.00137   2.37688
   A12        1.58091   0.00030   0.00137   0.00218   0.00354   1.58445
   A13        1.58705  -0.00001   0.00102  -0.00010   0.00092   1.58797
   A14        1.58705  -0.00001   0.00102  -0.00010   0.00092   1.58797
   A15        1.58182  -0.00002   0.00061  -0.00015   0.00045   1.58227
   A16        1.58154  -0.00001   0.00072  -0.00002   0.00070   1.58223
   A17        1.58182  -0.00002   0.00061  -0.00015   0.00045   1.58227
   A18        1.58154  -0.00001   0.00072  -0.00002   0.00069   1.58223
   A19        1.67482   0.00055   0.00335   0.00333   0.00666   1.68147
   A20        1.64870  -0.00028  -0.00009  -0.00214  -0.00223   1.64647
   A21        1.70167   0.00021   0.00211   0.00053   0.00263   1.70430
   A22        1.64851  -0.00027  -0.00001  -0.00205  -0.00206   1.64645
   A23        1.68256   0.00008   0.00120   0.00044   0.00163   1.68419
   A24        1.66801  -0.00031   0.00085  -0.00298  -0.00213   1.66587
   A25        1.68243   0.00008   0.00121   0.00046   0.00167   1.68410
   A26        1.64851  -0.00027  -0.00001  -0.00205  -0.00206   1.64645
   A27        1.70167   0.00021   0.00211   0.00053   0.00263   1.70430
   A28        1.64870  -0.00028  -0.00008  -0.00214  -0.00223   1.64647
   A29        1.68244   0.00008   0.00121   0.00046   0.00167   1.68411
   A30        1.66801  -0.00031   0.00085  -0.00298  -0.00213   1.66587
   A31        1.68254   0.00008   0.00120   0.00044   0.00164   1.68418
   A32        1.64870  -0.00028  -0.00008  -0.00214  -0.00223   1.64647
   A33        1.70167   0.00021   0.00211   0.00053   0.00263   1.70430
   A34        1.64851  -0.00027  -0.00001  -0.00205  -0.00206   1.64645
   A35        1.68256   0.00008   0.00120   0.00044   0.00163   1.68419
   A36        1.66801  -0.00031   0.00085  -0.00298  -0.00213   1.66588
   A37        1.68243   0.00008   0.00121   0.00047   0.00167   1.68410
   A38        1.64851  -0.00027  -0.00001  -0.00205  -0.00206   1.64645
   A39        1.70167   0.00021   0.00211   0.00053   0.00263   1.70430
   A40        1.64870  -0.00028  -0.00008  -0.00214  -0.00223   1.64647
   A41        1.68244   0.00008   0.00121   0.00046   0.00167   1.68411
   A42        1.66801  -0.00031   0.00085  -0.00298  -0.00213   1.66588
   A43        1.68254   0.00008   0.00120   0.00044   0.00164   1.68418
   A44        1.58704  -0.00001   0.00102  -0.00010   0.00092   1.58796
   A45        1.58704  -0.00001   0.00102  -0.00010   0.00092   1.58796
   A46        1.58598   0.00013   0.00093   0.00029   0.00121   1.58719
   A47        2.06086   0.00024   0.00087   0.00175   0.00262   2.06348
   A48        1.58091   0.00030   0.00137   0.00218   0.00355   1.58445
   A49        2.37551   0.00006   0.00125   0.00011   0.00136   2.37687
   A50        2.06086   0.00024   0.00087   0.00175   0.00262   2.06348
   A51        1.58619   0.00012   0.00085   0.00019   0.00104   1.58723
   A52        1.58095   0.00030   0.00138   0.00218   0.00355   1.58450
   A53        2.37587   0.00004   0.00111  -0.00005   0.00106   2.37692
   A54        1.58091   0.00030   0.00137   0.00219   0.00355   1.58445
   A55        2.37551   0.00006   0.00125   0.00012   0.00136   2.37687
   A56        1.58095   0.00030   0.00138   0.00218   0.00355   1.58450
   A57        2.37586   0.00004   0.00111  -0.00005   0.00106   2.37692
   A58        1.67483   0.00055   0.00335   0.00333   0.00665   1.68148
   A59        1.58154  -0.00001   0.00072  -0.00002   0.00069   1.58223
   A60        1.58154  -0.00001   0.00072  -0.00002   0.00069   1.58223
   A61        1.58181  -0.00002   0.00061  -0.00015   0.00046   1.58226
   A62        1.58181  -0.00002   0.00061  -0.00015   0.00045   1.58226
   A63        2.87984  -0.00042  -0.00422  -0.00105  -0.00525   2.87459
   A64        2.87985  -0.00042  -0.00422  -0.00106  -0.00526   2.87459
    D1       -1.52588  -0.00016   0.00020  -0.00211  -0.00191  -1.52779
    D2       -0.61002  -0.00005   0.00024  -0.00080  -0.00056  -0.61058
    D3       -1.54163  -0.00016  -0.00089  -0.00213  -0.00304  -1.54467
    D4        0.05523   0.00014   0.00160   0.00011   0.00171   0.05694
    D5        0.61038   0.00003  -0.00038   0.00064   0.00025   0.61064
    D6        1.52609   0.00015  -0.00028   0.00201   0.00173   1.52782
    D7        1.54223   0.00013   0.00065   0.00185   0.00251   1.54475
    D8       -0.05497  -0.00015  -0.00168  -0.00021  -0.00189  -0.05686
    D9        1.52588   0.00016  -0.00020   0.00211   0.00191   1.52779
   D10        0.61002   0.00005  -0.00025   0.00080   0.00055   0.61058
   D11        1.54163   0.00016   0.00089   0.00213   0.00304   1.54467
   D12       -0.05523  -0.00014  -0.00161  -0.00011  -0.00171  -0.05694
   D13       -0.61038  -0.00003   0.00038  -0.00063  -0.00025  -0.61063
   D14       -1.52609  -0.00015   0.00029  -0.00201  -0.00173  -1.52782
   D15       -1.54223  -0.00013  -0.00065  -0.00185  -0.00251  -1.54474
   D16        0.05497   0.00015   0.00169   0.00021   0.00189   0.05686
   D17       -0.00037   0.00002   0.00015   0.00018   0.00033  -0.00005
   D18        3.14159   0.00000   0.00000   0.00000   0.00000   3.14159
   D19       -3.14158   0.00000   0.00000   0.00000   0.00000  -3.14159
   D20        0.00037  -0.00002  -0.00015  -0.00018  -0.00033   0.00005
   D21       -0.00015   0.00000   0.00001   0.00003   0.00004  -0.00011
   D22        1.52608   0.00015  -0.00029   0.00201   0.00173   1.52781
   D23        0.61037   0.00003  -0.00038   0.00064   0.00026   0.61063
   D24       -0.05498  -0.00015  -0.00168  -0.00021  -0.00188  -0.05687
   D25        1.54221   0.00013   0.00065   0.00185   0.00252   1.54473
   D26       -1.53821  -0.00007   0.00057   0.00004   0.00061  -1.53761
   D27        0.00062   0.00000  -0.00005  -0.00012  -0.00017   0.00045
   D28       -0.84031   0.00014  -0.00064   0.00132   0.00068  -0.83963
   D29        0.84158  -0.00015   0.00052  -0.00159  -0.00107   0.84051
   D30       -0.61003  -0.00005   0.00025  -0.00080  -0.00055  -0.61058
   D31       -1.52588  -0.00016   0.00020  -0.00211  -0.00191  -1.52779
   D32        0.05523   0.00014   0.00161   0.00011   0.00171   0.05694
   D33       -1.54163  -0.00016  -0.00089  -0.00213  -0.00303  -1.54466
   D34        0.00051   0.00000  -0.00004  -0.00011  -0.00015   0.00036
   D35        0.84147  -0.00015   0.00052  -0.00158  -0.00105   0.84042
   D36       -0.84041   0.00014  -0.00063   0.00133   0.00070  -0.83972
   D37        1.53822   0.00007  -0.00056  -0.00004  -0.00061   1.53761
   D38        0.00015   0.00000  -0.00001  -0.00003  -0.00004   0.00011
   D39       -1.52608  -0.00015   0.00028  -0.00201  -0.00173  -1.52781
   D40       -0.61037  -0.00003   0.00038  -0.00064  -0.00026  -0.61063
   D41        0.05498   0.00015   0.00168   0.00021   0.00189   0.05687
   D42       -1.54221  -0.00013  -0.00065  -0.00185  -0.00252  -1.54473
   D43        1.53822   0.00007  -0.00057  -0.00004  -0.00061   1.53761
   D44       -0.00062   0.00000   0.00005   0.00012   0.00017  -0.00045
   D45        0.84030  -0.00014   0.00064  -0.00132  -0.00068   0.83963
   D46       -0.84158   0.00015  -0.00052   0.00159   0.00107  -0.84051
   D47        0.61003   0.00005  -0.00025   0.00080   0.00055   0.61058
   D48        1.52588   0.00016  -0.00020   0.00211   0.00191   1.52779
   D49       -0.05523  -0.00014  -0.00161  -0.00011  -0.00171  -0.05694
   D50        1.54163   0.00016   0.00089   0.00213   0.00303   1.54466
   D51       -0.00051   0.00000   0.00004   0.00011   0.00015  -0.00036
   D52       -0.84147   0.00015  -0.00052   0.00157   0.00105  -0.84042
   D53        0.84041  -0.00014   0.00064  -0.00134  -0.00070   0.83972
   D54       -1.53821  -0.00007   0.00057   0.00004   0.00061  -1.53761
         Item               Value     Threshold  Converged?
 Maximum Force            0.001083     0.000450     NO 
 RMS     Force            0.000222     0.000300     YES
 Maximum Displacement     0.012021     0.001800     NO 
 RMS     Displacement     0.001765     0.001200     NO 
 Predicted change in Energy=-3.732610D-05
 GradGradGradGradGradGradGradGradGradGradGradGradGradGradGradGradGradGrad

                          Input orientation:                          
 ---------------------------------------------------------------------
 Center     Atomic      Atomic             Coordinates (Angstroms)
 Number     Number       Type             X           Y           Z
 ---------------------------------------------------------------------
      1         22           0       11.267116    9.759234   10.576826
      2         22           0       10.990888   11.466350    8.435513
      3         22           0       10.683681    8.885374    8.032805
      4         22           0        9.316326   11.114619   11.967195
      5         22           0        9.009122    8.533645   11.564484
      6         22           0        8.732883   10.240769    9.423168
      7          6           0       12.155225    9.933351    8.783106
      8          6           0       10.440877    9.573262   12.398702
      9          6           0       10.184280   11.549094   10.241654
     10          6           0        9.815707    8.450909    9.758337
     11          6           0        9.559135   10.426732    7.601293
     12          6           0        7.844782   10.066643   11.216895
 ---------------------------------------------------------------------
                    Distance matrix (angstroms):
                    1          2          3          4          5
     1  Ti   0.000000
     2  Ti   2.752412   0.000000
     3  Ti   2.752466   2.630206   0.000000
     4  Ti   2.752412   3.924366   4.724257   0.000000
     5  Ti   2.752467   4.724259   3.924362   2.630205   0.000000
     6  Ti   2.825800   2.752472   2.752420   2.752470   2.752420
     7  C    2.009101   1.956167   1.956182   4.426416   4.426422
     8  C    2.009101   4.426416   4.426421   1.956167   1.956182
     9  C    2.118602   1.979800   3.496257   1.979799   3.496257
    10  C    2.118544   3.496255   1.979797   3.496253   1.979797
    11  C    3.495218   1.956181   1.956167   4.426425   4.426418
    12  C    3.495220   4.426426   4.426417   1.956181   1.956167
                    6          7          8          9         10
     6  Ti   0.000000
     7  C    3.495227   0.000000
     8  C    3.495227   4.017610   0.000000
     9  C    2.118535   2.936428   2.936428   0.000000
    10  C    2.118595   2.936334   2.936332   3.157244   0.000000
    11  C    2.009105   2.894787   4.951869   2.936326   2.936416
    12  C    2.009104   4.951870   2.894789   2.936325   2.936415
                   11         12
    11  C    0.000000
    12  C    4.017617   0.000000
 Stoichiometry    C6Ti6
 Framework group  C1[X(C6Ti6)]
 Deg. of freedom    30
 Full point group                 C1      NOp   1
 Largest Abelian subgroup         C1      NOp   1
 Largest concise Abelian subgroup C1      NOp   1
                         Standard orientation:                         
 ---------------------------------------------------------------------
 Center     Atomic      Atomic             Coordinates (Angstroms)
 Number     Number       Type             X           Y           Z
 ---------------------------------------------------------------------
      1         22           0        0.000001   -0.000115   -1.412896
      2         22           0        1.962183   -1.315102    0.000052
      3         22           0        1.962180    1.315105   -0.000056
      4         22           0       -1.962182   -1.315102    0.000051
      5         22           0       -1.962182    1.315103   -0.000056
      6         22           0        0.000000    0.000111    1.412904
      7          6           0        2.008806   -0.000069   -1.447396
      8          6           0       -2.008804   -0.000069   -1.447397
      9          6           0        0.000000   -1.578624    0.000180
     10          6           0       -0.000001    1.578621   -0.000161
     11          6           0        2.008808    0.000071    1.447391
     12          6           0       -2.008808    0.000070    1.447391
 ---------------------------------------------------------------------
 Rotational constants (GHZ):      0.7393929      0.4128520      0.3818113
 Standard basis: STO-3G (5D, 7F)
 There are   138 symmetry adapted basis functions of A   symmetry.
 Integral buffers will be    131072 words long.
 Raffenetti 2 integral format.
 Two-electron integral symmetry is turned on.
   138 basis functions,   432 primitive gaussians,   144 cartesian basis functions
    84 alpha electrons       84 beta electrons
       nuclear repulsion energy      2340.8909143017 Hartrees.
 NAtoms=   12 NActive=   12 NUniq=   12 SFac= 1.00D+00 NAtFMM=   50 NAOKFM=F Big=F
 One-electron integrals computed using PRISM.
 NBasis=   138 RedAO= T  NBF=   138
 NBsUse=   138 1.00D-06 NBFU=   138
 Initial guess read from the read-write file.
 B after Tr=     0.000000    0.000000    0.000000
         Rot=    1.000000    0.000000    0.000000    0.000000 Ang=   0.00 deg.
 Initial guess orbital symmetries:
       Occupied  (A) (A) (A) (A) (A) (A) (A) (A) (A) (A) (A) (A)
                 (A) (A) (A) (A) (A) (A) (A) (A) (A) (A) (A) (A)
                 (A) (A) (A) (A) (A) (A) (A) (A) (A) (A) (A) (A)
                 (A) (A) (A) (A) (A) (A) (A) (A) (A) (A) (A) (A)
                 (A) (A) (A) (A) (A) (A) (A) (A) (A) (A) (A) (A)
                 (A) (A) (A) (A) (A) (A) (A) (A) (A) (A) (A) (A)
                 (A) (A) (A) (A) (A) (A) (A) (A) (A) (A) (A) (A)
       Virtual   (A) (A) (A) (A) (A) (A) (A) (A) (A) (A) (A) (A)
                 (A) (A) (A) (A) (A) (A) (A) (A) (A) (A) (A) (A)
                 (A) (A) (A) (A) (A) (A) (A) (A) (A) (A) (A) (A)
                 (A) (A) (A) (A) (A) (A) (A) (A) (A) (A) (A) (A)
                 (A) (A) (A) (A) (A) (A)
 Requested convergence on RMS density matrix=1.00D-08 within 128 cycles.
 Requested convergence on MAX density matrix=1.00D-06.
 Requested convergence on             energy=1.00D-06.
 No special actions if energy rises.
 SCF Done:  E(RPBE-PBE) =  -5268.38861678     A.U. after   12 cycles
             Convg  =    0.1242D-08             -V/T =  2.0065
 Calling FoFJK, ICntrl=      2527 FMM=F ISym2X=0 I1Cent= 0 IOpClX= 0 NMat=1 NMatS=1 NMatT=0.
 ***** Axes restored to original set *****
 -------------------------------------------------------------------
 Center     Atomic                   Forces (Hartrees/Bohr)
 Number     Number              X              Y              Z
 -------------------------------------------------------------------
      1       22          -0.000579638    0.000099551   -0.000264476
      2       22           0.000140939    0.000355827   -0.000193216
      3       22           0.000084528   -0.000307301   -0.000286412
      4       22          -0.000085997    0.000308516    0.000285921
      5       22          -0.000142725   -0.000355458    0.000192929
      6       22           0.000579694   -0.000100591    0.000264592
      7        6          -0.000339498    0.000032413    0.000071359
      8        6          -0.000163545    0.000069497   -0.000299823
      9        6           0.000011935   -0.000043887    0.000000818
     10        6          -0.000008745    0.000043068   -0.000000295
     11        6           0.000163426   -0.000069342    0.000300018
     12        6           0.000339628   -0.000032293   -0.000071413
 -------------------------------------------------------------------
 Cartesian Forces:  Max     0.000579694 RMS     0.000239072

 GradGradGradGradGradGradGradGradGradGradGradGradGradGradGradGradGradGrad
 Berny optimization.
 Using GEDIIS/GDIIS optimizer.
 Internal  Forces:  Max     0.000348825 RMS     0.000075431
 Search for a local minimum.
 Step number   5 out of a maximum of  100
 All quantities printed in internal units (Hartrees-Bohrs-Radians)
 Mixed Optimization -- En-DIIS/RFO-DIIS
 Swaping is turned off.
 Update second derivatives using D2CorX and points    2    3    4    5
 DE= -4.50D-05 DEPred=-3.73D-05 R= 1.21D+00
 SS=  1.41D+00  RLast= 2.99D-02 DXNew= 1.4270D+00 8.9643D-02
 Trust test= 1.21D+00 RLast= 2.99D-02 DXMaxT set to 8.49D-01
 ITU=  1  1  1  1  0
     Eigenvalues ---    0.02526   0.02570   0.04603   0.05255   0.05774
     Eigenvalues ---    0.07306   0.07457   0.07888   0.08437   0.09409
     Eigenvalues ---    0.09639   0.09732   0.09918   0.10261   0.11879
     Eigenvalues ---    0.12585   0.13101   0.13207   0.13492   0.13674
     Eigenvalues ---    0.14307   0.14701   0.14879   0.15095   0.15609
     Eigenvalues ---    0.15689   0.15986   0.16335   0.16798   0.16880
 En-DIIS/RFO-DIIS IScMMF=        0 using points:     5    4    3
 RFO step:  Lambda=-2.75393353D-06.
 DidBck=F Rises=F RFO-DIIS coefs:    1.43988   -0.54941    0.10953
 Iteration  1 RMS(Cart)=  0.00065355 RMS(Int)=  0.00000266
 Iteration  2 RMS(Cart)=  0.00000023 RMS(Int)=  0.00000263
 Variable       Old X    -DE/DX   Delta X   Delta X   Delta X     New X
                                  (DIIS)     (GDIIS)  (Total)
    R1        5.20130   0.00004  -0.00073   0.00109   0.00036   5.20167
    R2        5.20141   0.00003  -0.00085   0.00109   0.00025   5.20166
    R3        5.20131   0.00004  -0.00073   0.00108   0.00036   5.20167
    R4        5.20141   0.00003  -0.00085   0.00109   0.00025   5.20166
    R5        5.33999  -0.00035  -0.00444  -0.00054  -0.00498   5.33501
    R6        3.79665  -0.00012  -0.00042  -0.00035  -0.00077   3.79588
    R7        3.79665  -0.00012  -0.00041  -0.00036  -0.00077   3.79588
    R8        4.00358  -0.00005   0.00038  -0.00059  -0.00022   4.00336
    R9        4.00347  -0.00006   0.00023  -0.00055  -0.00032   4.00314
   R10        4.97037   0.00022   0.00236   0.00118   0.00353   4.97390
   R11        5.20142   0.00003  -0.00084   0.00109   0.00025   5.20166
   R12        3.69662  -0.00011  -0.00087   0.00014  -0.00072   3.69590
   R13        3.74128   0.00010  -0.00012   0.00116   0.00104   3.74232
   R14        3.69665  -0.00011  -0.00082   0.00012  -0.00070   3.69595
   R15        5.20132   0.00004  -0.00073   0.00108   0.00036   5.20168
   R16        3.69665  -0.00011  -0.00082   0.00012  -0.00070   3.69595
   R17        3.74127   0.00010  -0.00012   0.00117   0.00104   3.74231
   R18        3.69662  -0.00011  -0.00086   0.00014  -0.00073   3.69589
   R19        4.97037   0.00022   0.00235   0.00118   0.00353   4.97390
   R20        5.20142   0.00003  -0.00085   0.00109   0.00025   5.20166
   R21        3.69662  -0.00011  -0.00086   0.00014  -0.00072   3.69590
   R22        3.74128   0.00010  -0.00012   0.00116   0.00104   3.74232
   R23        3.69665  -0.00011  -0.00082   0.00012  -0.00070   3.69595
   R24        5.20132   0.00004  -0.00073   0.00109   0.00036   5.20168
   R25        3.69665  -0.00011  -0.00082   0.00012  -0.00070   3.69595
   R26        3.74127   0.00010  -0.00012   0.00116   0.00104   3.74231
   R27        3.69662  -0.00011  -0.00087   0.00014  -0.00072   3.69590
   R28        4.00345  -0.00006   0.00023  -0.00054  -0.00032   4.00313
   R29        4.00356  -0.00005   0.00038  -0.00059  -0.00021   4.00335
   R30        3.79666  -0.00012  -0.00041  -0.00036  -0.00077   3.79589
   R31        3.79666  -0.00012  -0.00041  -0.00036  -0.00077   3.79589
    A1        1.58724   0.00004   0.00012   0.00030   0.00042   1.58766
    A2        2.06349   0.00009   0.00081   0.00037   0.00118   2.06467
    A3        2.37693   0.00000   0.00003   0.00015   0.00017   2.37711
    A4        1.58450   0.00007   0.00102   0.00009   0.00111   1.58561
    A5        2.06348   0.00009   0.00081   0.00037   0.00118   2.06467
    A6        1.58720   0.00004   0.00017   0.00030   0.00047   1.58767
    A7        2.37688   0.00001   0.00011   0.00014   0.00025   2.37713
    A8        1.58445   0.00007   0.00102   0.00009   0.00112   1.58557
    A9        2.37693   0.00000   0.00003   0.00015   0.00017   2.37711
   A10        1.58450   0.00007   0.00102   0.00009   0.00111   1.58561
   A11        2.37688   0.00001   0.00011   0.00014   0.00025   2.37713
   A12        1.58445   0.00007   0.00102   0.00009   0.00112   1.58557
   A13        1.58797  -0.00002   0.00001  -0.00001   0.00000   1.58797
   A14        1.58797  -0.00002   0.00001  -0.00001   0.00000   1.58797
   A15        1.58227  -0.00001  -0.00004   0.00000  -0.00004   1.58223
   A16        1.58223  -0.00001   0.00002  -0.00001   0.00002   1.58225
   A17        1.58227  -0.00001  -0.00004   0.00000  -0.00004   1.58223
   A18        1.58223  -0.00001   0.00002  -0.00001   0.00002   1.58225
   A19        1.68147   0.00009   0.00162  -0.00007   0.00155   1.68302
   A20        1.64647  -0.00013  -0.00095  -0.00057  -0.00152   1.64496
   A21        1.70430  -0.00001   0.00033  -0.00034  -0.00001   1.70429
   A22        1.64645  -0.00013  -0.00090  -0.00057  -0.00148   1.64497
   A23        1.68419  -0.00006   0.00025  -0.00067  -0.00042   1.68377
   A24        1.66587  -0.00013  -0.00127  -0.00032  -0.00159   1.66428
   A25        1.68410  -0.00006   0.00026  -0.00066  -0.00040   1.68371
   A26        1.64645  -0.00013  -0.00090  -0.00057  -0.00148   1.64497
   A27        1.70430  -0.00001   0.00033  -0.00034  -0.00001   1.70429
   A28        1.64647  -0.00013  -0.00095  -0.00057  -0.00151   1.64496
   A29        1.68411  -0.00006   0.00026  -0.00066  -0.00040   1.68371
   A30        1.66587  -0.00013  -0.00127  -0.00032  -0.00159   1.66428
   A31        1.68418  -0.00006   0.00025  -0.00067  -0.00042   1.68376
   A32        1.64647  -0.00013  -0.00095  -0.00057  -0.00152   1.64496
   A33        1.70430  -0.00001   0.00033  -0.00034  -0.00001   1.70429
   A34        1.64645  -0.00013  -0.00090  -0.00057  -0.00148   1.64497
   A35        1.68419  -0.00006   0.00025  -0.00067  -0.00042   1.68377
   A36        1.66588  -0.00013  -0.00127  -0.00032  -0.00159   1.66428
   A37        1.68410  -0.00006   0.00026  -0.00066  -0.00040   1.68371
   A38        1.64645  -0.00013  -0.00090  -0.00057  -0.00148   1.64497
   A39        1.70430  -0.00001   0.00033  -0.00034  -0.00001   1.70429
   A40        1.64647  -0.00013  -0.00095  -0.00057  -0.00151   1.64496
   A41        1.68411  -0.00006   0.00026  -0.00066  -0.00040   1.68371
   A42        1.66588  -0.00013  -0.00127  -0.00032  -0.00159   1.66428
   A43        1.68418  -0.00006   0.00025  -0.00067  -0.00042   1.68376
   A44        1.58796  -0.00002   0.00001  -0.00001   0.00000   1.58796
   A45        1.58796  -0.00002   0.00001  -0.00001   0.00000   1.58796
   A46        1.58719   0.00004   0.00017   0.00030   0.00047   1.58766
   A47        2.06348   0.00009   0.00081   0.00037   0.00119   2.06466
   A48        1.58445   0.00007   0.00102   0.00009   0.00112   1.58557
   A49        2.37687   0.00001   0.00011   0.00014   0.00025   2.37712
   A50        2.06348   0.00009   0.00081   0.00037   0.00119   2.06466
   A51        1.58723   0.00004   0.00012   0.00030   0.00043   1.58766
   A52        1.58450   0.00007   0.00102   0.00009   0.00111   1.58561
   A53        2.37692   0.00000   0.00003   0.00015   0.00018   2.37710
   A54        1.58445   0.00007   0.00102   0.00009   0.00112   1.58557
   A55        2.37687   0.00001   0.00011   0.00014   0.00025   2.37712
   A56        1.58450   0.00007   0.00102   0.00009   0.00111   1.58561
   A57        2.37692   0.00000   0.00003   0.00015   0.00018   2.37710
   A58        1.68148   0.00009   0.00162  -0.00007   0.00155   1.68303
   A59        1.58223  -0.00001   0.00002  -0.00001   0.00002   1.58224
   A60        1.58223  -0.00001   0.00002  -0.00001   0.00002   1.58224
   A61        1.58226  -0.00001  -0.00004   0.00000  -0.00004   1.58222
   A62        1.58226  -0.00001  -0.00004   0.00000  -0.00004   1.58222
   A63        2.87459   0.00002  -0.00066   0.00068   0.00002   2.87461
   A64        2.87459   0.00002  -0.00066   0.00068   0.00002   2.87461
    D1       -1.52779  -0.00005  -0.00092   0.00009  -0.00083  -1.52862
    D2       -0.61058   0.00000  -0.00034   0.00018  -0.00016  -0.61074
    D3       -1.54467  -0.00003  -0.00099   0.00010  -0.00089  -1.54555
    D4        0.05694   0.00003   0.00012   0.00018   0.00031   0.05724
    D5        0.61064   0.00000   0.00026  -0.00018   0.00008   0.61072
    D6        1.52782   0.00004   0.00087  -0.00009   0.00079   1.52861
    D7        1.54475   0.00002   0.00085  -0.00008   0.00076   1.54551
    D8       -0.05686  -0.00003  -0.00017  -0.00019  -0.00036  -0.05722
    D9        1.52779   0.00005   0.00092  -0.00009   0.00083   1.52862
   D10        0.61058   0.00000   0.00034  -0.00018   0.00016   0.61074
   D11        1.54467   0.00003   0.00099  -0.00010   0.00089   1.54555
   D12       -0.05694  -0.00003  -0.00012  -0.00018  -0.00030  -0.05724
   D13       -0.61063   0.00000  -0.00026   0.00018  -0.00009  -0.61072
   D14       -1.52782  -0.00004  -0.00087   0.00009  -0.00079  -1.52861
   D15       -1.54474  -0.00002  -0.00085   0.00008  -0.00076  -1.54551
   D16        0.05686   0.00003   0.00017   0.00018   0.00036   0.05722
   D17       -0.00005   0.00001   0.00008  -0.00001   0.00008   0.00003
   D18        3.14159   0.00000   0.00000   0.00000   0.00000   3.14159
   D19       -3.14159   0.00000   0.00000   0.00000   0.00000  -3.14159
   D20        0.00005  -0.00001  -0.00009   0.00001  -0.00008  -0.00003
   D21       -0.00011   0.00000   0.00001   0.00002   0.00003  -0.00008
   D22        1.52781   0.00004   0.00087  -0.00009   0.00079   1.52860
   D23        0.61063   0.00000   0.00026  -0.00018   0.00009   0.61072
   D24       -0.05687  -0.00003  -0.00017  -0.00018  -0.00036  -0.05722
   D25        1.54473   0.00002   0.00085  -0.00008   0.00077   1.54550
   D26       -1.53761  -0.00006   0.00005  -0.00041  -0.00037  -1.53797
   D27        0.00045   0.00000  -0.00006  -0.00006  -0.00012   0.00033
   D28       -0.83963   0.00007   0.00055   0.00019   0.00074  -0.83889
   D29        0.84051  -0.00008  -0.00067  -0.00031  -0.00098   0.83953
   D30       -0.61058   0.00000  -0.00034   0.00018  -0.00016  -0.61074
   D31       -1.52779  -0.00005  -0.00092   0.00009  -0.00083  -1.52862
   D32        0.05694   0.00003   0.00012   0.00018   0.00031   0.05724
   D33       -1.54466  -0.00003  -0.00098   0.00010  -0.00088  -1.54555
   D34        0.00036   0.00000  -0.00005  -0.00005  -0.00010   0.00026
   D35        0.84042  -0.00008  -0.00067  -0.00030  -0.00096   0.83946
   D36       -0.83972   0.00007   0.00055   0.00020   0.00076  -0.83896
   D37        1.53761   0.00006  -0.00005   0.00041   0.00037   1.53798
   D38        0.00011   0.00000  -0.00001  -0.00002  -0.00003   0.00008
   D39       -1.52781  -0.00004  -0.00087   0.00008  -0.00079  -1.52860
   D40       -0.61063   0.00000  -0.00026   0.00017  -0.00009  -0.61072
   D41        0.05687   0.00003   0.00017   0.00018   0.00035   0.05722
   D42       -1.54473  -0.00002  -0.00085   0.00008  -0.00077  -1.54550
   D43        1.53761   0.00006  -0.00005   0.00041   0.00037   1.53797
   D44       -0.00045   0.00000   0.00006   0.00006   0.00012  -0.00033
   D45        0.83963  -0.00007  -0.00055  -0.00019  -0.00074   0.83889
   D46       -0.84051   0.00008   0.00067   0.00031   0.00098  -0.83953
   D47        0.61058   0.00000   0.00034  -0.00018   0.00016   0.61074
   D48        1.52779   0.00005   0.00092  -0.00009   0.00083   1.52862
   D49       -0.05694  -0.00003  -0.00012  -0.00018  -0.00030  -0.05724
   D50        1.54466   0.00003   0.00098  -0.00010   0.00088   1.54554
   D51       -0.00036   0.00000   0.00005   0.00005   0.00010  -0.00026
   D52       -0.84042   0.00008   0.00067   0.00030   0.00097  -0.83946
   D53        0.83972  -0.00007  -0.00056  -0.00020  -0.00076   0.83896
   D54       -1.53761  -0.00006   0.00005  -0.00041  -0.00037  -1.53798
         Item               Value     Threshold  Converged?
 Maximum Force            0.000349     0.000450     YES
 RMS     Force            0.000075     0.000300     YES
 Maximum Displacement     0.002573     0.001800     NO 
 RMS     Displacement     0.000654     0.001200     YES
 Predicted change in Energy=-4.576142D-06
 GradGradGradGradGradGradGradGradGradGradGradGradGradGradGradGradGradGrad

                          Input orientation:                          
 ---------------------------------------------------------------------
 Center     Atomic      Atomic             Coordinates (Angstroms)
 Number     Number       Type             X           Y           Z
 ---------------------------------------------------------------------
      1         22           0       11.265930    9.759406   10.576281
      2         22           0       10.991219   11.467318    8.435159
      3         22           0       10.683815    8.884506    8.032173
      4         22           0        9.316192   11.115489   11.967825
      5         22           0        9.008789    8.532678   11.564839
      6         22           0        8.734070   10.240593    9.423713
      7          6           0       12.153864    9.933564    8.782934
      8          6           0       10.439861    9.573549   12.397798
      9          6           0       10.184411   11.550058   10.241811
     10          6           0        9.815579    8.449942    9.758179
     11          6           0        9.560148   10.426447    7.602198
     12          6           0        7.846144   10.066432   11.217067
 ---------------------------------------------------------------------
                    Distance matrix (angstroms):
                    1          2          3          4          5
     1  Ti   0.000000
     2  Ti   2.752605   0.000000
     3  Ti   2.752598   2.632074   0.000000
     4  Ti   2.752605   3.925459   4.726207   0.000000
     5  Ti   2.752598   4.726208   3.925458   2.632073   0.000000
     6  Ti   2.823167   2.752602   2.752610   2.752602   2.752611
     7  C    2.008695   1.955784   1.955813   4.426383   4.426395
     8  C    2.008695   4.426383   4.426395   1.955784   1.955812
     9  C    2.118487   1.980348   3.498153   1.980348   3.498153
    10  C    2.118373   3.498152   1.980347   3.498152   1.980347
    11  C    3.492822   1.955812   1.955783   4.426397   4.426384
    12  C    3.492822   4.426398   4.426384   1.955812   1.955784
                    6          7          8          9         10
     6  Ti   0.000000
     7  C    3.492829   0.000000
     8  C    3.492829   4.016797   0.000000
     9  C    2.118366   2.936005   2.936005   0.000000
    10  C    2.118481   2.935951   2.935951   3.159218   0.000000
    11  C    2.008697   2.892132   4.949657   2.935943   2.935995
    12  C    2.008697   4.949658   2.892133   2.935944   2.935995
                   11         12
    11  C    0.000000
    12  C    4.016802   0.000000
 Stoichiometry    C6Ti6
 Framework group  C1[X(C6Ti6)]
 Deg. of freedom    30
 Full point group                 C1      NOp   1
 Largest Abelian subgroup         C1      NOp   1
 Largest concise Abelian subgroup C1      NOp   1
                         Standard orientation:                         
 ---------------------------------------------------------------------
 Center     Atomic      Atomic             Coordinates (Angstroms)
 Number     Number       Type             X           Y           Z
 ---------------------------------------------------------------------
      1         22           0        0.000000    0.000046   -1.411580
      2         22           0        1.962730   -1.316036   -0.000038
      3         22           0        1.962729    1.316037    0.000034
      4         22           0       -1.962730   -1.316036   -0.000038
      5         22           0       -1.962729    1.316037    0.000034
      6         22           0        0.000000   -0.000047    1.411586
      7          6           0        2.008399    0.000019   -1.446069
      8          6           0       -2.008399    0.000018   -1.446068
      9          6           0        0.000000   -1.579609    0.000042
     10          6           0        0.000000    1.579608   -0.000026
     11          6           0        2.008401   -0.000018    1.446063
     12          6           0       -2.008401   -0.000018    1.446064
 ---------------------------------------------------------------------
 Rotational constants (GHZ):      0.7393874      0.4129220      0.3815577
 Standard basis: STO-3G (5D, 7F)
 There are   138 symmetry adapted basis functions of A   symmetry.
 Integral buffers will be    131072 words long.
 Raffenetti 2 integral format.
 Two-electron integral symmetry is turned on.
   138 basis functions,   432 primitive gaussians,   144 cartesian basis functions
    84 alpha electrons       84 beta electrons
       nuclear repulsion energy      2340.7984919550 Hartrees.
 NAtoms=   12 NActive=   12 NUniq=   12 SFac= 1.00D+00 NAtFMM=   50 NAOKFM=F Big=F
 One-electron integrals computed using PRISM.
 NBasis=   138 RedAO= T  NBF=   138
 NBsUse=   138 1.00D-06 NBFU=   138
 Initial guess read from the read-write file.
 B after Tr=     0.000000    0.000000    0.000000
         Rot=    1.000000    0.000000    0.000000    0.000000 Ang=   0.00 deg.
 Initial guess orbital symmetries:
       Occupied  (A) (A) (A) (A) (A) (A) (A) (A) (A) (A) (A) (A)
                 (A) (A) (A) (A) (A) (A) (A) (A) (A) (A) (A) (A)
                 (A) (A) (A) (A) (A) (A) (A) (A) (A) (A) (A) (A)
                 (A) (A) (A) (A) (A) (A) (A) (A) (A) (A) (A) (A)
                 (A) (A) (A) (A) (A) (A) (A) (A) (A) (A) (A) (A)
                 (A) (A) (A) (A) (A) (A) (A) (A) (A) (A) (A) (A)
                 (A) (A) (A) (A) (A) (A) (A) (A) (A) (A) (A) (A)
       Virtual   (A) (A) (A) (A) (A) (A) (A) (A) (A) (A) (A) (A)
                 (A) (A) (A) (A) (A) (A) (A) (A) (A) (A) (A) (A)
                 (A) (A) (A) (A) (A) (A) (A) (A) (A) (A) (A) (A)
                 (A) (A) (A) (A) (A) (A) (A) (A) (A) (A) (A) (A)
                 (A) (A) (A) (A) (A) (A)
 Requested convergence on RMS density matrix=1.00D-08 within 128 cycles.
 Requested convergence on MAX density matrix=1.00D-06.
 Requested convergence on             energy=1.00D-06.
 No special actions if energy rises.
 SCF Done:  E(RPBE-PBE) =  -5268.38862206     A.U. after   10 cycles
             Convg  =    0.6166D-08             -V/T =  2.0065
 Calling FoFJK, ICntrl=      2527 FMM=F ISym2X=0 I1Cent= 0 IOpClX= 0 NMat=1 NMatS=1 NMatT=0.
 ***** Axes restored to original set *****
 -------------------------------------------------------------------
 Center     Atomic                   Forces (Hartrees/Bohr)
 Number     Number              X              Y              Z
 -------------------------------------------------------------------
      1       22          -0.000223430    0.000054435   -0.000100527
      2       22          -0.000009325    0.000018454    0.000008607
      3       22           0.000000034   -0.000019895    0.000009192
      4       22          -0.000001127    0.000020363   -0.000009572
      5       22           0.000008218   -0.000018109   -0.000009035
      6       22           0.000223502   -0.000054914    0.000100818
      7        6           0.000021816   -0.000006048   -0.000002127
      8        6           0.000013043   -0.000007999    0.000017273
      9        6          -0.000000777   -0.000142567   -0.000014730
     10        6           0.000003298    0.000142065    0.000015582
     11        6          -0.000013147    0.000008089   -0.000017564
     12        6          -0.000022106    0.000006126    0.000002084
 -------------------------------------------------------------------
 Cartesian Forces:  Max     0.000223502 RMS     0.000068959

 GradGradGradGradGradGradGradGradGradGradGradGradGradGradGradGradGradGrad
 Berny optimization.
 Using GEDIIS/GDIIS optimizer.
 Internal  Forces:  Max     0.000072523 RMS     0.000015520
 Search for a local minimum.
 Step number   6 out of a maximum of  100
 All quantities printed in internal units (Hartrees-Bohrs-Radians)
 Mixed Optimization -- En-DIIS/RFO-DIIS
 Swaping is turned off.
 Update second derivatives using D2CorX and points    2    3    4    5    6
 DE= -5.28D-06 DEPred=-4.58D-06 R= 1.15D+00
 SS=  1.41D+00  RLast= 1.14D-02 DXNew= 1.4270D+00 3.4302D-02
 Trust test= 1.15D+00 RLast= 1.14D-02 DXMaxT set to 8.49D-01
 ITU=  1  1  1  1  1  0
     Eigenvalues ---    0.02525   0.02570   0.04603   0.05177   0.05257
     Eigenvalues ---    0.06976   0.07463   0.07891   0.08436   0.09407
     Eigenvalues ---    0.09640   0.09918   0.10256   0.10654   0.11879
     Eigenvalues ---    0.11987   0.12587   0.13101   0.13485   0.13675
     Eigenvalues ---    0.14309   0.14703   0.14880   0.15097   0.15138
     Eigenvalues ---    0.15685   0.15981   0.16331   0.16876   0.17661
 En-DIIS/RFO-DIIS IScMMF=        0 using points:     6    5    4    3
 RFO step:  Lambda=-1.08180440D-07.
 DidBck=F Rises=F RFO-DIIS coefs:    1.02140    0.00702   -0.04536    0.01694
 Iteration  1 RMS(Cart)=  0.00007766 RMS(Int)=  0.00000054
 Iteration  2 RMS(Cart)=  0.00000001 RMS(Int)=  0.00000054
 Variable       Old X    -DE/DX   Delta X   Delta X   Delta X     New X
                                  (DIIS)     (GDIIS)  (Total)
    R1        5.20167  -0.00001  -0.00003  -0.00014  -0.00017   5.20150
    R2        5.20166  -0.00001  -0.00004  -0.00012  -0.00015   5.20150
    R3        5.20167  -0.00001  -0.00003  -0.00014  -0.00017   5.20150
    R4        5.20166  -0.00001  -0.00004  -0.00012  -0.00015   5.20150
    R5        5.33501  -0.00007  -0.00025  -0.00072  -0.00097   5.33404
    R6        3.79588   0.00001  -0.00008   0.00020   0.00013   3.79601
    R7        3.79588   0.00001  -0.00007   0.00020   0.00013   3.79601
    R8        4.00336  -0.00007  -0.00014  -0.00047  -0.00061   4.00275
    R9        4.00314  -0.00007  -0.00014  -0.00041  -0.00055   4.00260
   R10        4.97390   0.00000   0.00026  -0.00005   0.00021   4.97410
   R11        5.20166  -0.00001  -0.00004  -0.00012  -0.00015   5.20151
   R12        3.69590   0.00001  -0.00011   0.00008  -0.00003   3.69587
   R13        3.74232   0.00000  -0.00007   0.00006  -0.00001   3.74231
   R14        3.69595   0.00000  -0.00010   0.00006  -0.00005   3.69590
   R15        5.20168  -0.00001  -0.00003  -0.00014  -0.00017   5.20150
   R16        3.69595   0.00000  -0.00011   0.00006  -0.00005   3.69590
   R17        3.74231   0.00000  -0.00007   0.00006  -0.00001   3.74230
   R18        3.69589   0.00001  -0.00010   0.00008  -0.00003   3.69587
   R19        4.97390   0.00000   0.00026  -0.00005   0.00021   4.97410
   R20        5.20166  -0.00001  -0.00004  -0.00012  -0.00015   5.20151
   R21        3.69590   0.00001  -0.00010   0.00008  -0.00003   3.69587
   R22        3.74232   0.00000  -0.00007   0.00006  -0.00001   3.74231
   R23        3.69595   0.00000  -0.00011   0.00006  -0.00005   3.69590
   R24        5.20168  -0.00001  -0.00003  -0.00014  -0.00018   5.20150
   R25        3.69595   0.00000  -0.00010   0.00006  -0.00005   3.69590
   R26        3.74231   0.00000  -0.00007   0.00006  -0.00001   3.74230
   R27        3.69590   0.00001  -0.00011   0.00008  -0.00003   3.69587
   R28        4.00313  -0.00007  -0.00014  -0.00040  -0.00054   4.00259
   R29        4.00335  -0.00007  -0.00014  -0.00047  -0.00061   4.00274
   R30        3.79589   0.00001  -0.00007   0.00020   0.00013   3.79601
   R31        3.79589   0.00001  -0.00008   0.00020   0.00013   3.79601
    A1        1.58766   0.00001  -0.00001   0.00011   0.00009   1.58776
    A2        2.06467   0.00001   0.00005   0.00013   0.00018   2.06485
    A3        2.37711   0.00001  -0.00003   0.00015   0.00012   2.37722
    A4        1.58561   0.00000   0.00004   0.00006   0.00010   1.58571
    A5        2.06467   0.00001   0.00005   0.00013   0.00018   2.06485
    A6        1.58767   0.00001  -0.00001   0.00010   0.00009   1.58775
    A7        2.37713   0.00001  -0.00003   0.00013   0.00010   2.37723
    A8        1.58557   0.00000   0.00004   0.00006   0.00010   1.58567
    A9        2.37711   0.00001  -0.00003   0.00015   0.00012   2.37722
   A10        1.58561   0.00000   0.00004   0.00006   0.00010   1.58571
   A11        2.37713   0.00001  -0.00003   0.00013   0.00010   2.37723
   A12        1.58557   0.00000   0.00004   0.00006   0.00010   1.58567
   A13        1.58797   0.00001  -0.00004   0.00012   0.00009   1.58805
   A14        1.58797   0.00001  -0.00004   0.00012   0.00009   1.58805
   A15        1.58223   0.00001  -0.00003   0.00009   0.00007   1.58229
   A16        1.58225   0.00001  -0.00002   0.00007   0.00005   1.58230
   A17        1.58223   0.00001  -0.00002   0.00009   0.00007   1.58229
   A18        1.58225   0.00001  -0.00002   0.00007   0.00005   1.58230
   A19        1.68302  -0.00001   0.00002   0.00005   0.00007   1.68309
   A20        1.64496   0.00000  -0.00009   0.00000  -0.00009   1.64486
   A21        1.70429  -0.00002  -0.00005  -0.00007  -0.00012   1.70417
   A22        1.64497   0.00000  -0.00009  -0.00002  -0.00010   1.64487
   A23        1.68377  -0.00001  -0.00004  -0.00003  -0.00006   1.68371
   A24        1.66428   0.00000  -0.00015   0.00005  -0.00010   1.66418
   A25        1.68371  -0.00001  -0.00003  -0.00002  -0.00005   1.68366
   A26        1.64497   0.00000  -0.00009  -0.00001  -0.00010   1.64487
   A27        1.70429  -0.00002  -0.00005  -0.00007  -0.00012   1.70417
   A28        1.64496   0.00000  -0.00009   0.00000  -0.00009   1.64486
   A29        1.68371  -0.00001  -0.00003  -0.00002  -0.00005   1.68366
   A30        1.66428   0.00000  -0.00015   0.00005  -0.00010   1.66418
   A31        1.68376  -0.00001  -0.00004  -0.00002  -0.00006   1.68370
   A32        1.64496   0.00000  -0.00009   0.00000  -0.00009   1.64486
   A33        1.70429  -0.00002  -0.00005  -0.00007  -0.00012   1.70417
   A34        1.64497   0.00000  -0.00009  -0.00002  -0.00010   1.64487
   A35        1.68377  -0.00001  -0.00004  -0.00003  -0.00006   1.68371
   A36        1.66428   0.00000  -0.00015   0.00005  -0.00010   1.66418
   A37        1.68371  -0.00001  -0.00003  -0.00002  -0.00005   1.68366
   A38        1.64497   0.00000  -0.00009  -0.00001  -0.00010   1.64487
   A39        1.70429  -0.00002  -0.00005  -0.00007  -0.00012   1.70417
   A40        1.64496   0.00000  -0.00009   0.00000  -0.00009   1.64486
   A41        1.68371  -0.00001  -0.00003  -0.00002  -0.00005   1.68366
   A42        1.66428   0.00000  -0.00015   0.00005  -0.00010   1.66418
   A43        1.68376  -0.00001  -0.00004  -0.00002  -0.00006   1.68370
   A44        1.58796   0.00001  -0.00004   0.00012   0.00009   1.58805
   A45        1.58796   0.00001  -0.00004   0.00012   0.00009   1.58805
   A46        1.58766   0.00001  -0.00001   0.00010   0.00009   1.58775
   A47        2.06466   0.00001   0.00005   0.00013   0.00018   2.06484
   A48        1.58557   0.00000   0.00004   0.00006   0.00010   1.58567
   A49        2.37712   0.00001  -0.00003   0.00013   0.00010   2.37722
   A50        2.06466   0.00001   0.00005   0.00013   0.00018   2.06484
   A51        1.58766   0.00001  -0.00001   0.00011   0.00010   1.58775
   A52        1.58561   0.00000   0.00004   0.00006   0.00010   1.58571
   A53        2.37710   0.00001  -0.00003   0.00015   0.00012   2.37722
   A54        1.58557   0.00000   0.00004   0.00006   0.00010   1.58567
   A55        2.37712   0.00001  -0.00003   0.00013   0.00010   2.37722
   A56        1.58561   0.00000   0.00004   0.00006   0.00010   1.58571
   A57        2.37710   0.00001  -0.00003   0.00015   0.00012   2.37722
   A58        1.68303  -0.00001   0.00002   0.00005   0.00007   1.68310
   A59        1.58224   0.00001  -0.00002   0.00007   0.00005   1.58230
   A60        1.58224   0.00001  -0.00002   0.00007   0.00005   1.58230
   A61        1.58222   0.00001  -0.00002   0.00009   0.00007   1.58229
   A62        1.58222   0.00001  -0.00002   0.00009   0.00007   1.58229
   A63        2.87461   0.00003   0.00011   0.00013   0.00024   2.87485
   A64        2.87461   0.00003   0.00011   0.00013   0.00024   2.87485
    D1       -1.52862   0.00000  -0.00008  -0.00003  -0.00012  -1.52874
    D2       -0.61074   0.00000  -0.00003   0.00000  -0.00003  -0.61077
    D3       -1.54555  -0.00001  -0.00005  -0.00015  -0.00020  -1.54575
    D4        0.05724   0.00000  -0.00004   0.00002  -0.00002   0.05722
    D5        0.61072   0.00000   0.00003   0.00001   0.00005   0.61077
    D6        1.52861   0.00000   0.00008   0.00005   0.00013   1.52873
    D7        1.54551   0.00002   0.00005   0.00018   0.00023   1.54574
    D8       -0.05722   0.00000   0.00004  -0.00002   0.00002  -0.05720
    D9        1.52862   0.00000   0.00008   0.00003   0.00012   1.52874
   D10        0.61074   0.00000   0.00003   0.00000   0.00003   0.61077
   D11        1.54555   0.00001   0.00005   0.00015   0.00020   1.54575
   D12       -0.05724   0.00000   0.00004  -0.00002   0.00002  -0.05722
   D13       -0.61072   0.00000  -0.00003  -0.00001  -0.00005  -0.61077
   D14       -1.52861   0.00000  -0.00008  -0.00005  -0.00013  -1.52873
   D15       -1.54551  -0.00002  -0.00005  -0.00018  -0.00023  -1.54574
   D16        0.05722   0.00000  -0.00004   0.00002  -0.00002   0.05720
   D17        0.00003   0.00000   0.00000  -0.00002  -0.00002   0.00001
   D18        3.14159   0.00000   0.00000   0.00000   0.00000   3.14159
   D19       -3.14159   0.00000   0.00000   0.00000   0.00000  -3.14159
   D20       -0.00003   0.00000   0.00000   0.00002   0.00002  -0.00001
   D21       -0.00008   0.00000   0.00000   0.00001   0.00001  -0.00007
   D22        1.52860   0.00000   0.00008   0.00005   0.00013   1.52873
   D23        0.61072   0.00000   0.00003   0.00001   0.00005   0.61076
   D24       -0.05722   0.00000   0.00004  -0.00002   0.00002  -0.05720
   D25        1.54550   0.00002   0.00005   0.00018   0.00023   1.54573
   D26       -1.53797   0.00001  -0.00002   0.00010   0.00007  -1.53790
   D27        0.00033   0.00000   0.00000  -0.00004  -0.00005   0.00028
   D28       -0.83889   0.00000   0.00007  -0.00006   0.00001  -0.83888
   D29        0.83953   0.00000  -0.00008  -0.00002  -0.00010   0.83943
   D30       -0.61074   0.00000  -0.00003   0.00000  -0.00003  -0.61077
   D31       -1.52862   0.00000  -0.00008  -0.00003  -0.00012  -1.52874
   D32        0.05724   0.00000  -0.00004   0.00002  -0.00002   0.05723
   D33       -1.54555  -0.00001  -0.00005  -0.00015  -0.00020  -1.54574
   D34        0.00026   0.00000   0.00000  -0.00004  -0.00004   0.00022
   D35        0.83946   0.00000  -0.00008  -0.00001  -0.00009   0.83936
   D36       -0.83896   0.00000   0.00007  -0.00006   0.00002  -0.83894
   D37        1.53798  -0.00001   0.00002  -0.00010  -0.00007   1.53790
   D38        0.00008   0.00000   0.00000  -0.00001  -0.00001   0.00007
   D39       -1.52860   0.00000  -0.00008  -0.00005  -0.00013  -1.52873
   D40       -0.61072   0.00000  -0.00003  -0.00001  -0.00005  -0.61076
   D41        0.05722   0.00000  -0.00004   0.00002  -0.00002   0.05720
   D42       -1.54550  -0.00002  -0.00005  -0.00018  -0.00023  -1.54573
   D43        1.53797  -0.00001   0.00002  -0.00010  -0.00007   1.53790
   D44       -0.00033   0.00000   0.00000   0.00004   0.00005  -0.00028
   D45        0.83889   0.00000  -0.00007   0.00006  -0.00001   0.83888
   D46       -0.83953   0.00000   0.00008   0.00002   0.00010  -0.83943
   D47        0.61074   0.00000   0.00003   0.00000   0.00003   0.61077
   D48        1.52862   0.00000   0.00008   0.00003   0.00012   1.52874
   D49       -0.05724   0.00000   0.00004  -0.00002   0.00002  -0.05723
   D50        1.54554   0.00001   0.00005   0.00015   0.00020   1.54574
   D51       -0.00026   0.00000   0.00000   0.00004   0.00004  -0.00022
   D52       -0.83946   0.00000   0.00008   0.00001   0.00009  -0.83936
   D53        0.83896   0.00000  -0.00007   0.00006  -0.00002   0.83894
   D54       -1.53798   0.00001  -0.00002   0.00010   0.00007  -1.53790
         Item               Value     Threshold  Converged?
 Maximum Force            0.000073     0.000450     YES
 RMS     Force            0.000016     0.000300     YES
 Maximum Displacement     0.000432     0.001800     YES
 RMS     Displacement     0.000078     0.001200     YES
 Predicted change in Energy=-1.709686D-07
 Optimization completed.
    -- Stationary point found.
                           ----------------------------
                           !   Optimized Parameters   !
                           ! (Angstroms and Degrees)  !
 --------------------------                            --------------------------
 ! Name  Definition              Value          Derivative Info.                !
 --------------------------------------------------------------------------------
 ! R1    R(1,2)                  2.7526         -DE/DX =    0.0                 !
 ! R2    R(1,3)                  2.7526         -DE/DX =    0.0                 !
 ! R3    R(1,4)                  2.7526         -DE/DX =    0.0                 !
 ! R4    R(1,5)                  2.7526         -DE/DX =    0.0                 !
 ! R5    R(1,6)                  2.8232         -DE/DX =   -0.0001              !
 ! R6    R(1,7)                  2.0087         -DE/DX =    0.0                 !
 ! R7    R(1,8)                  2.0087         -DE/DX =    0.0                 !
 ! R8    R(1,9)                  2.1185         -DE/DX =   -0.0001              !
 ! R9    R(1,10)                 2.1184         -DE/DX =   -0.0001              !
 ! R10   R(2,3)                  2.6321         -DE/DX =    0.0                 !
 ! R11   R(2,6)                  2.7526         -DE/DX =    0.0                 !
 ! R12   R(2,7)                  1.9558         -DE/DX =    0.0                 !
 ! R13   R(2,9)                  1.9803         -DE/DX =    0.0                 !
 ! R14   R(2,11)                 1.9558         -DE/DX =    0.0                 !
 ! R15   R(3,6)                  2.7526         -DE/DX =    0.0                 !
 ! R16   R(3,7)                  1.9558         -DE/DX =    0.0                 !
 ! R17   R(3,10)                 1.9803         -DE/DX =    0.0                 !
 ! R18   R(3,11)                 1.9558         -DE/DX =    0.0                 !
 ! R19   R(4,5)                  2.6321         -DE/DX =    0.0                 !
 ! R20   R(4,6)                  2.7526         -DE/DX =    0.0                 !
 ! R21   R(4,8)                  1.9558         -DE/DX =    0.0                 !
 ! R22   R(4,9)                  1.9803         -DE/DX =    0.0                 !
 ! R23   R(4,12)                 1.9558         -DE/DX =    0.0                 !
 ! R24   R(5,6)                  2.7526         -DE/DX =    0.0                 !
 ! R25   R(5,8)                  1.9558         -DE/DX =    0.0                 !
 ! R26   R(5,10)                 1.9803         -DE/DX =    0.0                 !
 ! R27   R(5,12)                 1.9558         -DE/DX =    0.0                 !
 ! R28   R(6,9)                  2.1184         -DE/DX =   -0.0001              !
 ! R29   R(6,10)                 2.1185         -DE/DX =   -0.0001              !
 ! R30   R(6,11)                 2.0087         -DE/DX =    0.0                 !
 ! R31   R(6,12)                 2.0087         -DE/DX =    0.0                 !
 ! A1    A(2,1,4)               90.9663         -DE/DX =    0.0                 !
 ! A2    A(2,1,5)              118.2968         -DE/DX =    0.0                 !
 ! A3    A(2,1,8)              136.1981         -DE/DX =    0.0                 !
 ! A4    A(2,1,10)              90.8487         -DE/DX =    0.0                 !
 ! A5    A(3,1,4)              118.2968         -DE/DX =    0.0                 !
 ! A6    A(3,1,5)               90.9666         -DE/DX =    0.0                 !
 ! A7    A(3,1,8)              136.1994         -DE/DX =    0.0                 !
 ! A8    A(3,1,9)               90.8465         -DE/DX =    0.0                 !
 ! A9    A(4,1,7)              136.1981         -DE/DX =    0.0                 !
 ! A10   A(4,1,10)              90.8487         -DE/DX =    0.0                 !
 ! A11   A(5,1,7)              136.1994         -DE/DX =    0.0                 !
 ! A12   A(5,1,9)               90.8465         -DE/DX =    0.0                 !
 ! A13   A(6,1,7)               90.9838         -DE/DX =    0.0                 !
 ! A14   A(6,1,8)               90.9838         -DE/DX =    0.0                 !
 ! A15   A(7,1,9)               90.6549         -DE/DX =    0.0                 !
 ! A16   A(7,1,10)              90.6561         -DE/DX =    0.0                 !
 ! A17   A(8,1,9)               90.6549         -DE/DX =    0.0                 !
 ! A18   A(8,1,10)              90.6561         -DE/DX =    0.0                 !
 ! A19   A(9,1,10)              96.43           -DE/DX =    0.0                 !
 ! A20   A(1,2,11)              94.2491         -DE/DX =    0.0                 !
 ! A21   A(3,2,9)               97.6484         -DE/DX =    0.0                 !
 ! A22   A(6,2,7)               94.2501         -DE/DX =    0.0                 !
 ! A23   A(7,2,9)               96.4728         -DE/DX =    0.0                 !
 ! A24   A(7,2,11)              95.3562         -DE/DX =    0.0                 !
 ! A25   A(9,2,11)              96.4693         -DE/DX =    0.0                 !
 ! A26   A(1,3,11)              94.25           -DE/DX =    0.0                 !
 ! A27   A(2,3,10)              97.6484         -DE/DX =    0.0                 !
 ! A28   A(6,3,7)               94.2492         -DE/DX =    0.0                 !
 ! A29   A(7,3,10)              96.4696         -DE/DX =    0.0                 !
 ! A30   A(7,3,11)              95.3562         -DE/DX =    0.0                 !
 ! A31   A(10,3,11)             96.4725         -DE/DX =    0.0                 !
 ! A32   A(1,4,12)              94.2491         -DE/DX =    0.0                 !
 ! A33   A(5,4,9)               97.6484         -DE/DX =    0.0                 !
 ! A34   A(6,4,8)               94.2501         -DE/DX =    0.0                 !
 ! A35   A(8,4,9)               96.4729         -DE/DX =    0.0                 !
 ! A36   A(8,4,12)              95.3562         -DE/DX =    0.0                 !
 ! A37   A(9,4,12)              96.4692         -DE/DX =    0.0                 !
 ! A38   A(1,5,12)              94.25           -DE/DX =    0.0                 !
 ! A39   A(4,5,10)              97.6484         -DE/DX =    0.0                 !
 ! A40   A(6,5,8)               94.2492         -DE/DX =    0.0                 !
 ! A41   A(8,5,10)              96.4696         -DE/DX =    0.0                 !
 ! A42   A(8,5,12)              95.3562         -DE/DX =    0.0                 !
 ! A43   A(10,5,12)             96.4725         -DE/DX =    0.0                 !
 ! A44   A(1,6,11)              90.9835         -DE/DX =    0.0                 !
 ! A45   A(1,6,12)              90.9835         -DE/DX =    0.0                 !
 ! A46   A(2,6,4)               90.9665         -DE/DX =    0.0                 !
 ! A47   A(2,6,5)              118.2965         -DE/DX =    0.0                 !
 ! A48   A(2,6,10)              90.8464         -DE/DX =    0.0                 !
 ! A49   A(2,6,12)             136.1991         -DE/DX =    0.0                 !
 ! A50   A(3,6,4)              118.2965         -DE/DX =    0.0                 !
 ! A51   A(3,6,5)               90.9661         -DE/DX =    0.0                 !
 ! A52   A(3,6,9)               90.8487         -DE/DX =    0.0                 !
 ! A53   A(3,6,12)             136.1977         -DE/DX =    0.0                 !
 ! A54   A(4,6,10)              90.8464         -DE/DX =    0.0                 !
 ! A55   A(4,6,11)             136.1991         -DE/DX =    0.0                 !
 ! A56   A(5,6,9)               90.8487         -DE/DX =    0.0                 !
 ! A57   A(5,6,11)             136.1977         -DE/DX =    0.0                 !
 ! A58   A(9,6,10)              96.4304         -DE/DX =    0.0                 !
 ! A59   A(9,6,11)              90.6559         -DE/DX =    0.0                 !
 ! A60   A(9,6,12)              90.6559         -DE/DX =    0.0                 !
 ! A61   A(10,6,11)             90.6547         -DE/DX =    0.0                 !
 ! A62   A(10,6,12)             90.6547         -DE/DX =    0.0                 !
 ! A63   A(2,9,4)              164.7031         -DE/DX =    0.0                 !
 ! A64   A(3,10,5)             164.7032         -DE/DX =    0.0                 !
 ! D1    D(4,1,2,11)           -87.5835         -DE/DX =    0.0                 !
 ! D2    D(5,1,2,11)           -34.9928         -DE/DX =    0.0                 !
 ! D3    D(8,1,2,11)           -88.5536         -DE/DX =    0.0                 !
 ! D4    D(10,1,2,11)            3.2797         -DE/DX =    0.0                 !
 ! D5    D(4,1,3,11)            34.9917         -DE/DX =    0.0                 !
 ! D6    D(5,1,3,11)            87.5827         -DE/DX =    0.0                 !
 ! D7    D(8,1,3,11)            88.5511         -DE/DX =    0.0                 !
 ! D8    D(9,1,3,11)            -3.2783         -DE/DX =    0.0                 !
 ! D9    D(2,1,4,12)            87.5835         -DE/DX =    0.0                 !
 ! D10   D(3,1,4,12)            34.9927         -DE/DX =    0.0                 !
 ! D11   D(7,1,4,12)            88.5536         -DE/DX =    0.0                 !
 ! D12   D(10,1,4,12)           -3.2797         -DE/DX =    0.0                 !
 ! D13   D(2,1,5,12)           -34.9917         -DE/DX =    0.0                 !
 ! D14   D(3,1,5,12)           -87.5826         -DE/DX =    0.0                 !
 ! D15   D(7,1,5,12)           -88.551          -DE/DX =    0.0                 !
 ! D16   D(9,1,5,12)             3.2783         -DE/DX =    0.0                 !
 ! D17   D(7,1,6,11)             0.0017         -DE/DX =    0.0                 !
 ! D18   D(7,1,6,12)           179.9999         -DE/DX =    0.0                 !
 ! D19   D(8,1,6,11)          -179.9999         -DE/DX =    0.0                 !
 ! D20   D(8,1,6,12)            -0.0017         -DE/DX =    0.0                 !
 ! D21   D(9,2,3,10)            -0.0045         -DE/DX =    0.0                 !
 ! D22   D(7,2,6,4)             87.5824         -DE/DX =    0.0                 !
 ! D23   D(7,2,6,5)             34.9916         -DE/DX =    0.0                 !
 ! D24   D(7,2,6,10)            -3.2785         -DE/DX =    0.0                 !
 ! D25   D(7,2,6,12)            88.5504         -DE/DX =    0.0                 !
 ! D26   D(3,2,7,1)            -88.1194         -DE/DX =    0.0                 !
 ! D27   D(3,2,9,4)              0.0191         -DE/DX =    0.0                 !
 ! D28   D(7,2,9,4)            -48.0647         -DE/DX =    0.0                 !
 ! D29   D(11,2,9,4)            48.1016         -DE/DX =    0.0                 !
 ! D30   D(7,3,6,4)            -34.9928         -DE/DX =    0.0                 !
 ! D31   D(7,3,6,5)            -87.5834         -DE/DX =    0.0                 !
 ! D32   D(7,3,6,9)              3.2798         -DE/DX =    0.0                 !
 ! D33   D(7,3,6,12)           -88.5532         -DE/DX =    0.0                 !
 ! D34   D(2,3,10,5)             0.0147         -DE/DX =    0.0                 !
 ! D35   D(7,3,10,5)            48.0973         -DE/DX =    0.0                 !
 ! D36   D(11,3,10,5)          -48.069          -DE/DX =    0.0                 !
 ! D37   D(6,3,11,2)            88.1196         -DE/DX =    0.0                 !
 ! D38   D(9,4,5,10)             0.0045         -DE/DX =    0.0                 !
 ! D39   D(8,4,6,2)            -87.5824         -DE/DX =    0.0                 !
 ! D40   D(8,4,6,3)            -34.9916         -DE/DX =    0.0                 !
 ! D41   D(8,4,6,10)             3.2785         -DE/DX =    0.0                 !
 ! D42   D(8,4,6,11)           -88.5504         -DE/DX =    0.0                 !
 ! D43   D(5,4,8,1)             88.1194         -DE/DX =    0.0                 !
 ! D44   D(5,4,9,2)             -0.0191         -DE/DX =    0.0                 !
 ! D45   D(8,4,9,2)             48.0647         -DE/DX =    0.0                 !
 ! D46   D(12,4,9,2)           -48.1016         -DE/DX =    0.0                 !
 ! D47   D(8,5,6,2)             34.9928         -DE/DX =    0.0                 !
 ! D48   D(8,5,6,3)             87.5834         -DE/DX =    0.0                 !
 ! D49   D(8,5,6,9)             -3.2798         -DE/DX =    0.0                 !
 ! D50   D(8,5,6,11)            88.5532         -DE/DX =    0.0                 !
 ! D51   D(4,5,10,3)            -0.0147         -DE/DX =    0.0                 !
 ! D52   D(8,5,10,3)           -48.0972         -DE/DX =    0.0                 !
 ! D53   D(12,5,10,3)           48.069          -DE/DX =    0.0                 !
 ! D54   D(6,5,12,4)           -88.1195         -DE/DX =    0.0                 !
 --------------------------------------------------------------------------------
 GradGradGradGradGradGradGradGradGradGradGradGradGradGradGradGradGradGrad

                          Input orientation:                          
 ---------------------------------------------------------------------
 Center     Atomic      Atomic             Coordinates (Angstroms)
 Number     Number       Type             X           Y           Z
 ---------------------------------------------------------------------
      1         22           0       11.265930    9.759406   10.576281
      2         22           0       10.991219   11.467318    8.435159
      3         22           0       10.683815    8.884506    8.032173
      4         22           0        9.316192   11.115489   11.967825
      5         22           0        9.008789    8.532678   11.564839
      6         22           0        8.734070   10.240593    9.423713
      7          6           0       12.153864    9.933564    8.782934
      8          6           0       10.439861    9.573549   12.397798
      9          6           0       10.184411   11.550058   10.241811
     10          6           0        9.815579    8.449942    9.758179
     11          6           0        9.560148   10.426447    7.602198
     12          6           0        7.846144   10.066432   11.217067
 ---------------------------------------------------------------------
                    Distance matrix (angstroms):
                    1          2          3          4          5
     1  Ti   0.000000
     2  Ti   2.752605   0.000000
     3  Ti   2.752598   2.632074   0.000000
     4  Ti   2.752605   3.925459   4.726207   0.000000
     5  Ti   2.752598   4.726208   3.925458   2.632073   0.000000
     6  Ti   2.823167   2.752602   2.752610   2.752602   2.752611
     7  C    2.008695   1.955784   1.955813   4.426383   4.426395
     8  C    2.008695   4.426383   4.426395   1.955784   1.955812
     9  C    2.118487   1.980348   3.498153   1.980348   3.498153
    10  C    2.118373   3.498152   1.980347   3.498152   1.980347
    11  C    3.492822   1.955812   1.955783   4.426397   4.426384
    12  C    3.492822   4.426398   4.426384   1.955812   1.955784
                    6          7          8          9         10
     6  Ti   0.000000
     7  C    3.492829   0.000000
     8  C    3.492829   4.016797   0.000000
     9  C    2.118366   2.936005   2.936005   0.000000
    10  C    2.118481   2.935951   2.935951   3.159218   0.000000
    11  C    2.008697   2.892132   4.949657   2.935943   2.935995
    12  C    2.008697   4.949658   2.892133   2.935944   2.935995
                   11         12
    11  C    0.000000
    12  C    4.016802   0.000000
 Stoichiometry    C6Ti6
 Framework group  C1[X(C6Ti6)]
 Deg. of freedom    30
 Full point group                 C1      NOp   1
 Largest Abelian subgroup         C1      NOp   1
 Largest concise Abelian subgroup C1      NOp   1
                         Standard orientation:                         
 ---------------------------------------------------------------------
 Center     Atomic      Atomic             Coordinates (Angstroms)
 Number     Number       Type             X           Y           Z
 ---------------------------------------------------------------------
      1         22           0        0.000000    0.000046   -1.411580
      2         22           0        1.962730   -1.316036   -0.000038
      3         22           0        1.962729    1.316037    0.000034
      4         22           0       -1.962730   -1.316036   -0.000038
      5         22           0       -1.962729    1.316037    0.000034
      6         22           0        0.000000   -0.000047    1.411586
      7          6           0        2.008399    0.000019   -1.446069
      8          6           0       -2.008399    0.000018   -1.446068
      9          6           0        0.000000   -1.579609    0.000042
     10          6           0        0.000000    1.579608   -0.000026
     11          6           0        2.008401   -0.000018    1.446063
     12          6           0       -2.008401   -0.000018    1.446064
 ---------------------------------------------------------------------
 Rotational constants (GHZ):      0.7393874      0.4129220      0.3815577

 **********************************************************************

            Population analysis using the SCF density.

 **********************************************************************

 Orbital symmetries:
       Occupied  (A) (A) (A) (A) (A) (A) (A) (A) (A) (A) (A) (A)
                 (A) (A) (A) (A) (A) (A) (A) (A) (A) (A) (A) (A)
                 (A) (A) (A) (A) (A) (A) (A) (A) (A) (A) (A) (A)
                 (A) (A) (A) (A) (A) (A) (A) (A) (A) (A) (A) (A)
                 (A) (A) (A) (A) (A) (A) (A) (A) (A) (A) (A) (A)
                 (A) (A) (A) (A) (A) (A) (A) (A) (A) (A) (A) (A)
                 (A) (A) (A) (A) (A) (A) (A) (A) (A) (A) (A) (A)
       Virtual   (A) (A) (A) (A) (A) (A) (A) (A) (A) (A) (A) (A)
                 (A) (A) (A) (A) (A) (A) (A) (A) (A) (A) (A) (A)
                 (A) (A) (A) (A) (A) (A) (A) (A) (A) (A) (A) (A)
                 (A) (A) (A) (A) (A) (A) (A) (A) (A) (A) (A) (A)
                 (A) (A) (A) (A) (A) (A)
 The electronic state is 1-A.
 Alpha  occ. eigenvalues -- -176.02619-176.02618-176.02614-176.02614-176.01414
 Alpha  occ. eigenvalues -- -176.01410 -19.30093 -19.30027 -19.29941 -19.29880
 Alpha  occ. eigenvalues --  -19.29144 -19.28946 -16.40210 -16.40204 -16.40195
 Alpha  occ. eigenvalues --  -16.40192 -16.39932 -16.39930 -16.39912 -16.39912
 Alpha  occ. eigenvalues --  -16.39872 -16.39869 -16.39868 -16.39867 -16.39148
 Alpha  occ. eigenvalues --  -16.39123 -16.39050 -16.39050 -16.38820 -16.38819
 Alpha  occ. eigenvalues --   -9.52516  -9.52513  -9.50413  -9.50411  -9.50408
 Alpha  occ. eigenvalues --   -9.50402  -2.28968  -2.28966  -2.28848  -2.28834
 Alpha  occ. eigenvalues --   -2.28127  -2.28101  -1.47263  -1.47201  -1.46361
 Alpha  occ. eigenvalues --   -1.46179  -1.45849  -1.45454  -1.45384  -1.45346
 Alpha  occ. eigenvalues --   -1.45237  -1.45209  -1.45022  -1.44941  -1.44935
 Alpha  occ. eigenvalues --   -1.44860  -1.44686  -1.44624  -1.43750  -1.43669
 Alpha  occ. eigenvalues --   -0.40216  -0.36304  -0.35157  -0.35067  -0.34480
 Alpha  occ. eigenvalues --   -0.32546  -0.14727  -0.14570  -0.13471  -0.13076
 Alpha  occ. eigenvalues --   -0.10312  -0.09880  -0.09878  -0.08144  -0.07199
 Alpha  occ. eigenvalues --   -0.06837  -0.06279  -0.05894  -0.05013  -0.04991
 Alpha  occ. eigenvalues --   -0.04616  -0.03942  -0.03352  -0.02311
 Alpha virt. eigenvalues --    0.03043   0.03945   0.03983   0.04022   0.06386
 Alpha virt. eigenvalues --    0.06456   0.06764   0.08632   0.08994   0.09618
 Alpha virt. eigenvalues --    0.10180   0.10306   0.11962   0.12576   0.12675
 Alpha virt. eigenvalues --    0.12987   0.13065   0.14025   0.16067   0.16358
 Alpha virt. eigenvalues --    0.16870   0.17325   0.19025   0.22317   0.24193
 Alpha virt. eigenvalues --    0.24237   0.24433   0.26543   0.27296   0.27306
 Alpha virt. eigenvalues --    0.29974   0.31094   0.31169   0.32407   0.49345
 Alpha virt. eigenvalues --    0.49550   0.50129   0.51446   0.53260   0.55289
 Alpha virt. eigenvalues --    0.56590   0.56908   0.58208   0.59432   0.62083
 Alpha virt. eigenvalues --    0.62483   0.64789   0.68082   0.71215   0.71710
 Alpha virt. eigenvalues --    0.74717   0.80155   0.80739   0.85591
          Condensed to atoms (all electrons):
              1          2          3          4          5          6
     1  Ti  20.305711   0.059186   0.059179   0.059186   0.059179   0.030515
     2  Ti   0.059186  20.460549   0.067726  -0.019325   0.000159   0.059178
     3  Ti   0.059179   0.067726  20.460549   0.000159  -0.019325   0.059185
     4  Ti   0.059186  -0.019325   0.000159  20.460549   0.067726   0.059178
     5  Ti   0.059179   0.000159  -0.019325   0.067726  20.460549   0.059185
     6  Ti   0.030515   0.059178   0.059185   0.059178   0.059185  20.305710
     7  C    0.335885   0.367502   0.367485  -0.000084  -0.000084  -0.003522
     8  C    0.335885  -0.000084  -0.000084   0.367502   0.367486  -0.003522
     9  C    0.228540   0.361385  -0.004295   0.361385  -0.004295   0.228587
    10  C    0.228584  -0.004295   0.361385  -0.004295   0.361385   0.228543
    11  C   -0.003522   0.367486   0.367503  -0.000084  -0.000084   0.335885
    12  C   -0.003522  -0.000084  -0.000084   0.367486   0.367502   0.335885
              7          8          9         10         11         12
     1  Ti   0.335885   0.335885   0.228540   0.228584  -0.003522  -0.003522
     2  Ti   0.367502  -0.000084   0.361385  -0.004295   0.367486  -0.000084
     3  Ti   0.367485  -0.000084  -0.004295   0.361385   0.367503  -0.000084
     4  Ti  -0.000084   0.367502   0.361385  -0.004295  -0.000084   0.367486
     5  Ti  -0.000084   0.367486  -0.004295   0.361385  -0.000084   0.367502
     6  Ti  -0.003522  -0.003522   0.228587   0.228543   0.335885   0.335885
     7  C    5.247971  -0.000080  -0.009592  -0.009593  -0.011575   0.000002
     8  C   -0.000080   5.247970  -0.009592  -0.009593   0.000002  -0.011575
     9  C   -0.009592  -0.009592   5.170137  -0.005272  -0.009593  -0.009593
    10  C   -0.009593  -0.009593  -0.005272   5.170136  -0.009592  -0.009592
    11  C   -0.011575   0.000002  -0.009593  -0.009592   5.247970  -0.000080
    12  C    0.000002  -0.011575  -0.009593  -0.009592  -0.000080   5.247970
 Mulliken atomic charges:
              1
     1  Ti   0.305194
     2  Ti   0.280618
     3  Ti   0.280618
     4  Ti   0.280618
     5  Ti   0.280618
     6  Ti   0.305195
     7  C   -0.284315
     8  C   -0.284315
     9  C   -0.297802
    10  C   -0.297802
    11  C   -0.284314
    12  C   -0.284314
 Sum of Mulliken atomic charges =   0.00000
 Mulliken charges with hydrogens summed into heavy atoms:
              1
     1  Ti   0.305194
     2  Ti   0.280618
     3  Ti   0.280618
     4  Ti   0.280618
     5  Ti   0.280618
     6  Ti   0.305195
     7  C   -0.284315
     8  C   -0.284315
     9  C   -0.297802
    10  C   -0.297802
    11  C   -0.284314
    12  C   -0.284314
 Sum of Mulliken charges with hydrogens summed into heavy atoms =   0.00000
 Electronic spatial extent (au):  <R**2>=           2948.4916
 Charge=              0.0000 electrons
 Dipole moment (field-independent basis, Debye):
    X=              0.0000    Y=              0.0000    Z=              0.0000  Tot=              0.0000
 Quadrupole moment (field-independent basis, Debye-Ang):
   XX=           -107.7665   YY=            -98.8209   ZZ=           -127.8948
   XY=              0.0000   XZ=              0.0000   YZ=              0.0009
 Traceless Quadrupole moment (field-independent basis, Debye-Ang):
   XX=              3.7275   YY=             12.6732   ZZ=            -16.4007
   XY=              0.0000   XZ=              0.0000   YZ=              0.0009
 Octapole moment (field-independent basis, Debye-Ang**2):
  XXX=              0.0000  YYY=              0.0001  ZZZ=              0.0005  XYY=              0.0000
  XXY=              0.0000  XXZ=             -0.0002  XZZ=              0.0000  YZZ=              0.0000
  YYZ=             -0.0002  XYZ=              0.0000
 Hexadecapole moment (field-independent basis, Debye-Ang**3):
 XXXX=          -1857.4397 YYYY=           -779.3027 ZZZZ=           -739.1786 XXXY=              0.0000
 XXXZ=              0.0000 YYYX=              0.0000 YYYZ=              0.0061 ZZZX=              0.0001
 ZZZY=             -0.0009 XXYY=           -264.0131 XXZZ=           -552.5432 YYZZ=           -273.0606
 XXYZ=              0.0067 YYXZ=              0.0000 ZZXY=              0.0000
 N-N= 2.340798491955D+03 E-N=-1.711914123126D+04  KE= 5.234472857701D+03
 1\1\GINC-G3NODEN2\FOpt\RPBEPBE\STO-3G\C6Ti6\G16PINERO\14-Mar-2019\0\\#
  PBEPBE Opt Freq\\TiC_6\\0,1\Ti,11.2659296479,9.7594064071,10.57628141
 29\Ti,10.9912192714,11.4673178284,8.4351589589\Ti,10.6838154849,8.8845
 059695,8.0321732872\Ti,9.3161920376,11.1154891338,11.9678253608\Ti,9.0
 087888227,8.5326776144,11.5648387333\Ti,8.734069626,10.2405929299,9.42
 37127166\C,12.1538638483,9.9335635399,8.7829335914\C,10.4398613254,9.5
 735486535,12.3977980306\C,10.1844106732,11.550058321,10.2418114682\C,9
 .8155794005,8.4499421396,9.7581791306\C,9.5601482625,10.4264468965,7.6
 021984205\C,7.8461435996,10.0664315664,11.2170668892\\Version=EM64L-G0
 9RevB.01\State=1-A\HF=-5268.3886221\RMSD=6.166e-09\RMSF=6.896e-05\Dipo
 le=0.0000046,-0.0000044,-0.0000009\Quadrupole=-9.1738749,8.7408475,0.4
 330274,3.0496961,-5.3601252,2.0405445\PG=C01 [X(C6Ti6)]\\@


 JUST WHEN YOU THINK YOU'VE GOT THE WORLD ON A STRING,
 YOU FIND OUT IT'S YOUR LEASH.
 Job cpu time:  0 days  0 hours 13 minutes 11.1 seconds.
 File lengths (MBytes):  RWF=     28 Int=      0 D2E=      0 Chk=      3 Scr=      1
 Normal termination of Gaussian 09 at Thu Mar 14 12:22:03 2019.
 Link1:  Proceeding to internal job step number  2.
 -------------------------------------------------------------------
 #N Geom=AllCheck Guess=TCheck SCRF=Check GenChk RPBEPBE/STO-3G Freq
 -------------------------------------------------------------------
 1/10=4,29=7,30=1,38=1,40=1/1,3;
 2/12=2,40=1/2;
 3/6=3,11=2,14=-4,16=1,25=1,30=1,70=2,71=2,74=1009,116=1/1,2,3;
 4/5=101/1;
 5/5=2,98=1/2;
 8/6=4,10=90,11=11/1;
 11/6=1,8=1,9=11,15=111,16=1/1,2,10;
 10/6=1/2;
 6/7=2,8=2,9=2,10=2,18=1,28=1/1;
 7/8=1,10=1,25=1/1,2,3,16;
 1/10=4,30=1/3;
 99//99;
 -----
 TiC_6
 -----
 Redundant internal coordinates taken from checkpoint file:
 /home/g16pinero/Gaussian/PBE/Gau-31436.chk
 Charge =  0 Multiplicity = 1
 Ti,0,11.2659296479,9.7594064071,10.5762814129
 Ti,0,10.9912192714,11.4673178284,8.4351589589
 Ti,0,10.6838154849,8.8845059695,8.0321732872
 Ti,0,9.3161920376,11.1154891338,11.9678253608
 Ti,0,9.0087888227,8.5326776144,11.5648387333
 Ti,0,8.734069626,10.2405929299,9.4237127166
 C,0,12.1538638483,9.9335635399,8.7829335914
 C,0,10.4398613254,9.5735486535,12.3977980306
 C,0,10.1844106732,11.550058321,10.2418114682
 C,0,9.8155794005,8.4499421396,9.7581791306
 C,0,9.5601482625,10.4264468965,7.6021984205
 C,0,7.8461435996,10.0664315664,11.2170668892
 Recover connectivity data from disk.

 GradGradGradGradGradGradGradGradGradGradGradGradGradGradGradGradGradGrad
 Berny optimization.
 Initialization pass.
                           ----------------------------
                           !    Initial Parameters    !
                           ! (Angstroms and Degrees)  !
 --------------------------                            --------------------------
 ! Name  Definition              Value          Derivative Info.                !
 --------------------------------------------------------------------------------
 ! R1    R(1,2)                  2.7526         calculate D2E/DX2 analytically  !
 ! R2    R(1,3)                  2.7526         calculate D2E/DX2 analytically  !
 ! R3    R(1,4)                  2.7526         calculate D2E/DX2 analytically  !
 ! R4    R(1,5)                  2.7526         calculate D2E/DX2 analytically  !
 ! R5    R(1,6)                  2.8232         calculate D2E/DX2 analytically  !
 ! R6    R(1,7)                  2.0087         calculate D2E/DX2 analytically  !
 ! R7    R(1,8)                  2.0087         calculate D2E/DX2 analytically  !
 ! R8    R(1,9)                  2.1185         calculate D2E/DX2 analytically  !
 ! R9    R(1,10)                 2.1184         calculate D2E/DX2 analytically  !
 ! R10   R(2,3)                  2.6321         calculate D2E/DX2 analytically  !
 ! R11   R(2,6)                  2.7526         calculate D2E/DX2 analytically  !
 ! R12   R(2,7)                  1.9558         calculate D2E/DX2 analytically  !
 ! R13   R(2,9)                  1.9803         calculate D2E/DX2 analytically  !
 ! R14   R(2,11)                 1.9558         calculate D2E/DX2 analytically  !
 ! R15   R(3,6)                  2.7526         calculate D2E/DX2 analytically  !
 ! R16   R(3,7)                  1.9558         calculate D2E/DX2 analytically  !
 ! R17   R(3,10)                 1.9803         calculate D2E/DX2 analytically  !
 ! R18   R(3,11)                 1.9558         calculate D2E/DX2 analytically  !
 ! R19   R(4,5)                  2.6321         calculate D2E/DX2 analytically  !
 ! R20   R(4,6)                  2.7526         calculate D2E/DX2 analytically  !
 ! R21   R(4,8)                  1.9558         calculate D2E/DX2 analytically  !
 ! R22   R(4,9)                  1.9803         calculate D2E/DX2 analytically  !
 ! R23   R(4,12)                 1.9558         calculate D2E/DX2 analytically  !
 ! R24   R(5,6)                  2.7526         calculate D2E/DX2 analytically  !
 ! R25   R(5,8)                  1.9558         calculate D2E/DX2 analytically  !
 ! R26   R(5,10)                 1.9803         calculate D2E/DX2 analytically  !
 ! R27   R(5,12)                 1.9558         calculate D2E/DX2 analytically  !
 ! R28   R(6,9)                  2.1184         calculate D2E/DX2 analytically  !
 ! R29   R(6,10)                 2.1185         calculate D2E/DX2 analytically  !
 ! R30   R(6,11)                 2.0087         calculate D2E/DX2 analytically  !
 ! R31   R(6,12)                 2.0087         calculate D2E/DX2 analytically  !
 ! A1    A(2,1,4)               90.9663         calculate D2E/DX2 analytically  !
 ! A2    A(2,1,5)              118.2968         calculate D2E/DX2 analytically  !
 ! A3    A(2,1,8)              136.1981         calculate D2E/DX2 analytically  !
 ! A4    A(2,1,10)              90.8487         calculate D2E/DX2 analytically  !
 ! A5    A(3,1,4)              118.2968         calculate D2E/DX2 analytically  !
 ! A6    A(3,1,5)               90.9666         calculate D2E/DX2 analytically  !
 ! A7    A(3,1,8)              136.1994         calculate D2E/DX2 analytically  !
 ! A8    A(3,1,9)               90.8465         calculate D2E/DX2 analytically  !
 ! A9    A(4,1,7)              136.1981         calculate D2E/DX2 analytically  !
 ! A10   A(4,1,10)              90.8487         calculate D2E/DX2 analytically  !
 ! A11   A(5,1,7)              136.1994         calculate D2E/DX2 analytically  !
 ! A12   A(5,1,9)               90.8465         calculate D2E/DX2 analytically  !
 ! A13   A(6,1,7)               90.9838         calculate D2E/DX2 analytically  !
 ! A14   A(6,1,8)               90.9838         calculate D2E/DX2 analytically  !
 ! A15   A(7,1,9)               90.6549         calculate D2E/DX2 analytically  !
 ! A16   A(7,1,10)              90.6561         calculate D2E/DX2 analytically  !
 ! A17   A(8,1,9)               90.6549         calculate D2E/DX2 analytically  !
 ! A18   A(8,1,10)              90.6561         calculate D2E/DX2 analytically  !
 ! A19   A(9,1,10)              96.43           calculate D2E/DX2 analytically  !
 ! A20   A(1,2,11)              94.2491         calculate D2E/DX2 analytically  !
 ! A21   A(3,2,9)               97.6484         calculate D2E/DX2 analytically  !
 ! A22   A(6,2,7)               94.2501         calculate D2E/DX2 analytically  !
 ! A23   A(7,2,9)               96.4728         calculate D2E/DX2 analytically  !
 ! A24   A(7,2,11)              95.3562         calculate D2E/DX2 analytically  !
 ! A25   A(9,2,11)              96.4693         calculate D2E/DX2 analytically  !
 ! A26   A(1,3,11)              94.25           calculate D2E/DX2 analytically  !
 ! A27   A(2,3,10)              97.6484         calculate D2E/DX2 analytically  !
 ! A28   A(6,3,7)               94.2492         calculate D2E/DX2 analytically  !
 ! A29   A(7,3,10)              96.4696         calculate D2E/DX2 analytically  !
 ! A30   A(7,3,11)              95.3562         calculate D2E/DX2 analytically  !
 ! A31   A(10,3,11)             96.4725         calculate D2E/DX2 analytically  !
 ! A32   A(1,4,12)              94.2491         calculate D2E/DX2 analytically  !
 ! A33   A(5,4,9)               97.6484         calculate D2E/DX2 analytically  !
 ! A34   A(6,4,8)               94.2501         calculate D2E/DX2 analytically  !
 ! A35   A(8,4,9)               96.4729         calculate D2E/DX2 analytically  !
 ! A36   A(8,4,12)              95.3562         calculate D2E/DX2 analytically  !
 ! A37   A(9,4,12)              96.4692         calculate D2E/DX2 analytically  !
 ! A38   A(1,5,12)              94.25           calculate D2E/DX2 analytically  !
 ! A39   A(4,5,10)              97.6484         calculate D2E/DX2 analytically  !
 ! A40   A(6,5,8)               94.2492         calculate D2E/DX2 analytically  !
 ! A41   A(8,5,10)              96.4696         calculate D2E/DX2 analytically  !
 ! A42   A(8,5,12)              95.3562         calculate D2E/DX2 analytically  !
 ! A43   A(10,5,12)             96.4725         calculate D2E/DX2 analytically  !
 ! A44   A(1,6,11)              90.9835         calculate D2E/DX2 analytically  !
 ! A45   A(1,6,12)              90.9835         calculate D2E/DX2 analytically  !
 ! A46   A(2,6,4)               90.9665         calculate D2E/DX2 analytically  !
 ! A47   A(2,6,5)              118.2965         calculate D2E/DX2 analytically  !
 ! A48   A(2,6,10)              90.8464         calculate D2E/DX2 analytically  !
 ! A49   A(2,6,12)             136.1991         calculate D2E/DX2 analytically  !
 ! A50   A(3,6,4)              118.2965         calculate D2E/DX2 analytically  !
 ! A51   A(3,6,5)               90.9661         calculate D2E/DX2 analytically  !
 ! A52   A(3,6,9)               90.8487         calculate D2E/DX2 analytically  !
 ! A53   A(3,6,12)             136.1977         calculate D2E/DX2 analytically  !
 ! A54   A(4,6,10)              90.8464         calculate D2E/DX2 analytically  !
 ! A55   A(4,6,11)             136.1991         calculate D2E/DX2 analytically  !
 ! A56   A(5,6,9)               90.8487         calculate D2E/DX2 analytically  !
 ! A57   A(5,6,11)             136.1977         calculate D2E/DX2 analytically  !
 ! A58   A(9,6,10)              96.4304         calculate D2E/DX2 analytically  !
 ! A59   A(9,6,11)              90.6559         calculate D2E/DX2 analytically  !
 ! A60   A(9,6,12)              90.6559         calculate D2E/DX2 analytically  !
 ! A61   A(10,6,11)             90.6547         calculate D2E/DX2 analytically  !
 ! A62   A(10,6,12)             90.6547         calculate D2E/DX2 analytically  !
 ! A63   A(2,9,4)              164.7031         calculate D2E/DX2 analytically  !
 ! A64   A(3,10,5)             164.7032         calculate D2E/DX2 analytically  !
 ! D1    D(4,1,2,11)           -87.5835         calculate D2E/DX2 analytically  !
 ! D2    D(5,1,2,11)           -34.9928         calculate D2E/DX2 analytically  !
 ! D3    D(8,1,2,11)           -88.5536         calculate D2E/DX2 analytically  !
 ! D4    D(10,1,2,11)            3.2797         calculate D2E/DX2 analytically  !
 ! D5    D(4,1,3,11)            34.9917         calculate D2E/DX2 analytically  !
 ! D6    D(5,1,3,11)            87.5827         calculate D2E/DX2 analytically  !
 ! D7    D(8,1,3,11)            88.5511         calculate D2E/DX2 analytically  !
 ! D8    D(9,1,3,11)            -3.2783         calculate D2E/DX2 analytically  !
 ! D9    D(2,1,4,12)            87.5835         calculate D2E/DX2 analytically  !
 ! D10   D(3,1,4,12)            34.9927         calculate D2E/DX2 analytically  !
 ! D11   D(7,1,4,12)            88.5536         calculate D2E/DX2 analytically  !
 ! D12   D(10,1,4,12)           -3.2797         calculate D2E/DX2 analytically  !
 ! D13   D(2,1,5,12)           -34.9917         calculate D2E/DX2 analytically  !
 ! D14   D(3,1,5,12)           -87.5826         calculate D2E/DX2 analytically  !
 ! D15   D(7,1,5,12)           -88.551          calculate D2E/DX2 analytically  !
 ! D16   D(9,1,5,12)             3.2783         calculate D2E/DX2 analytically  !
 ! D17   D(7,1,6,11)             0.0017         calculate D2E/DX2 analytically  !
 ! D18   D(7,1,6,12)           179.9999         calculate D2E/DX2 analytically  !
 ! D19   D(8,1,6,11)          -179.9999         calculate D2E/DX2 analytically  !
 ! D20   D(8,1,6,12)            -0.0017         calculate D2E/DX2 analytically  !
 ! D21   D(9,2,3,10)            -0.0045         calculate D2E/DX2 analytically  !
 ! D22   D(7,2,6,4)             87.5824         calculate D2E/DX2 analytically  !
 ! D23   D(7,2,6,5)             34.9916         calculate D2E/DX2 analytically  !
 ! D24   D(7,2,6,10)            -3.2785         calculate D2E/DX2 analytically  !
 ! D25   D(7,2,6,12)            88.5504         calculate D2E/DX2 analytically  !
 ! D26   D(3,2,7,1)            -88.1194         calculate D2E/DX2 analytically  !
 ! D27   D(3,2,9,4)              0.0191         calculate D2E/DX2 analytically  !
 ! D28   D(7,2,9,4)            -48.0647         calculate D2E/DX2 analytically  !
 ! D29   D(11,2,9,4)            48.1016         calculate D2E/DX2 analytically  !
 ! D30   D(7,3,6,4)            -34.9928         calculate D2E/DX2 analytically  !
 ! D31   D(7,3,6,5)            -87.5834         calculate D2E/DX2 analytically  !
 ! D32   D(7,3,6,9)              3.2798         calculate D2E/DX2 analytically  !
 ! D33   D(7,3,6,12)           -88.5532         calculate D2E/DX2 analytically  !
 ! D34   D(2,3,10,5)             0.0147         calculate D2E/DX2 analytically  !
 ! D35   D(7,3,10,5)            48.0973         calculate D2E/DX2 analytically  !
 ! D36   D(11,3,10,5)          -48.069          calculate D2E/DX2 analytically  !
 ! D37   D(6,3,11,2)            88.1196         calculate D2E/DX2 analytically  !
 ! D38   D(9,4,5,10)             0.0045         calculate D2E/DX2 analytically  !
 ! D39   D(8,4,6,2)            -87.5824         calculate D2E/DX2 analytically  !
 ! D40   D(8,4,6,3)            -34.9916         calculate D2E/DX2 analytically  !
 ! D41   D(8,4,6,10)             3.2785         calculate D2E/DX2 analytically  !
 ! D42   D(8,4,6,11)           -88.5504         calculate D2E/DX2 analytically  !
 ! D43   D(5,4,8,1)             88.1194         calculate D2E/DX2 analytically  !
 ! D44   D(5,4,9,2)             -0.0191         calculate D2E/DX2 analytically  !
 ! D45   D(8,4,9,2)             48.0647         calculate D2E/DX2 analytically  !
 ! D46   D(12,4,9,2)           -48.1016         calculate D2E/DX2 analytically  !
 ! D47   D(8,5,6,2)             34.9928         calculate D2E/DX2 analytically  !
 ! D48   D(8,5,6,3)             87.5834         calculate D2E/DX2 analytically  !
 ! D49   D(8,5,6,9)             -3.2798         calculate D2E/DX2 analytically  !
 ! D50   D(8,5,6,11)            88.5532         calculate D2E/DX2 analytically  !
 ! D51   D(4,5,10,3)            -0.0147         calculate D2E/DX2 analytically  !
 ! D52   D(8,5,10,3)           -48.0972         calculate D2E/DX2 analytically  !
 ! D53   D(12,5,10,3)           48.069          calculate D2E/DX2 analytically  !
 ! D54   D(6,5,12,4)           -88.1195         calculate D2E/DX2 analytically  !
 --------------------------------------------------------------------------------
 Trust Radius=3.00D-01 FncErr=1.00D-07 GrdErr=1.00D-07
 Number of steps in this run=      2 maximum allowed number of steps=      2.
 GradGradGradGradGradGradGradGradGradGradGradGradGradGradGradGradGradGrad

                          Input orientation:                          
 ---------------------------------------------------------------------
 Center     Atomic      Atomic             Coordinates (Angstroms)
 Number     Number       Type             X           Y           Z
 ---------------------------------------------------------------------
      1         22           0       11.265930    9.759406   10.576281
      2         22           0       10.991219   11.467318    8.435159
      3         22           0       10.683815    8.884506    8.032173
      4         22           0        9.316192   11.115489   11.967825
      5         22           0        9.008789    8.532678   11.564839
      6         22           0        8.734070   10.240593    9.423713
      7          6           0       12.153864    9.933564    8.782934
      8          6           0       10.439861    9.573549   12.397798
      9          6           0       10.184411   11.550058   10.241811
     10          6           0        9.815579    8.449942    9.758179
     11          6           0        9.560148   10.426447    7.602198
     12          6           0        7.846144   10.066432   11.217067
 ---------------------------------------------------------------------
                    Distance matrix (angstroms):
                    1          2          3          4          5
     1  Ti   0.000000
     2  Ti   2.752605   0.000000
     3  Ti   2.752598   2.632074   0.000000
     4  Ti   2.752605   3.925459   4.726207   0.000000
     5  Ti   2.752598   4.726208   3.925458   2.632073   0.000000
     6  Ti   2.823167   2.752602   2.752610   2.752602   2.752611
     7  C    2.008695   1.955784   1.955813   4.426383   4.426395
     8  C    2.008695   4.426383   4.426395   1.955784   1.955812
     9  C    2.118487   1.980348   3.498153   1.980348   3.498153
    10  C    2.118373   3.498152   1.980347   3.498152   1.980347
    11  C    3.492822   1.955812   1.955783   4.426397   4.426384
    12  C    3.492822   4.426398   4.426384   1.955812   1.955784
                    6          7          8          9         10
     6  Ti   0.000000
     7  C    3.492829   0.000000
     8  C    3.492829   4.016797   0.000000
     9  C    2.118366   2.936005   2.936005   0.000000
    10  C    2.118481   2.935951   2.935951   3.159218   0.000000
    11  C    2.008697   2.892132   4.949657   2.935943   2.935995
    12  C    2.008697   4.949658   2.892133   2.935944   2.935995
                   11         12
    11  C    0.000000
    12  C    4.016802   0.000000
 Stoichiometry    C6Ti6
 Framework group  C1[X(C6Ti6)]
 Deg. of freedom    30
 Full point group                 C1      NOp   1
 Largest Abelian subgroup         C1      NOp   1
 Largest concise Abelian subgroup C1      NOp   1
                         Standard orientation:                         
 ---------------------------------------------------------------------
 Center     Atomic      Atomic             Coordinates (Angstroms)
 Number     Number       Type             X           Y           Z
 ---------------------------------------------------------------------
      1         22           0        0.000000    0.000046   -1.411580
      2         22           0        1.962730   -1.316036   -0.000038
      3         22           0        1.962729    1.316037    0.000034
      4         22           0       -1.962730   -1.316036   -0.000038
      5         22           0       -1.962729    1.316037    0.000034
      6         22           0        0.000000   -0.000047    1.411586
      7          6           0        2.008399    0.000019   -1.446069
      8          6           0       -2.008399    0.000018   -1.446068
      9          6           0        0.000000   -1.579609    0.000042
     10          6           0        0.000000    1.579608   -0.000026
     11          6           0        2.008401   -0.000018    1.446063
     12          6           0       -2.008401   -0.000018    1.446064
 ---------------------------------------------------------------------
 Rotational constants (GHZ):      0.7393874      0.4129220      0.3815577
 Standard basis: STO-3G (5D, 7F)
 There are   138 symmetry adapted basis functions of A   symmetry.
 Integral buffers will be    131072 words long.
 Raffenetti 2 integral format.
 Two-electron integral symmetry is turned on.
   138 basis functions,   432 primitive gaussians,   144 cartesian basis functions
    84 alpha electrons       84 beta electrons
       nuclear repulsion energy      2340.7984919550 Hartrees.
 NAtoms=   12 NActive=   12 NUniq=   12 SFac= 1.00D+00 NAtFMM=   50 NAOKFM=F Big=F
 One-electron integrals computed using PRISM.
 NBasis=   138 RedAO= T  NBF=   138
 NBsUse=   138 1.00D-06 NBFU=   138
 Initial guess read from the checkpoint file:  /home/g16pinero/Gaussian/PBE/Gau-31436.chk
 B after Tr=     0.000000    0.000000    0.000000
         Rot=    1.000000    0.000000    0.000000    0.000000 Ang=   0.00 deg.
 Initial guess orbital symmetries:
       Occupied  (A) (A) (A) (A) (A) (A) (A) (A) (A) (A) (A) (A)
                 (A) (A) (A) (A) (A) (A) (A) (A) (A) (A) (A) (A)
                 (A) (A) (A) (A) (A) (A) (A) (A) (A) (A) (A) (A)
                 (A) (A) (A) (A) (A) (A) (A) (A) (A) (A) (A) (A)
                 (A) (A) (A) (A) (A) (A) (A) (A) (A) (A) (A) (A)
                 (A) (A) (A) (A) (A) (A) (A) (A) (A) (A) (A) (A)
                 (A) (A) (A) (A) (A) (A) (A) (A) (A) (A) (A) (A)
       Virtual   (A) (A) (A) (A) (A) (A) (A) (A) (A) (A) (A) (A)
                 (A) (A) (A) (A) (A) (A) (A) (A) (A) (A) (A) (A)
                 (A) (A) (A) (A) (A) (A) (A) (A) (A) (A) (A) (A)
                 (A) (A) (A) (A) (A) (A) (A) (A) (A) (A) (A) (A)
                 (A) (A) (A) (A) (A) (A)
 Requested convergence on RMS density matrix=1.00D-08 within 128 cycles.
 Requested convergence on MAX density matrix=1.00D-06.
 Requested convergence on             energy=1.00D-06.
 No special actions if energy rises.
 SCF Done:  E(RPBE-PBE) =  -5268.38862206     A.U. after    3 cycles
             Convg  =    0.1298D-08             -V/T =  2.0065
 Range of M.O.s used for correlation:     1   138
 NBasis=   138 NAE=    84 NBE=    84 NFC=     0 NFV=     0
 NROrb=    138 NOA=    84 NOB=    84 NVA=    54 NVB=    54

 **** Warning!!: The smallest alpha delta epsilon is  0.53544734D-01

 Symmetrizing basis deriv contribution to polar:
 IMax=3 JMax=2 DiffMx= 0.00D+00
 G2DrvN: will do    13 centers at a time, making    1 passes doing MaxLOS=2.
 Calling FoFCou, ICntrl=  3507 FMM=F I1Cent=   0 AccDes= 0.00D+00.
 FoFDir/FoFCou used for L=0 through L=2.
 End of G2Drv Frequency-dependent properties file   721 does not exist.
 End of G2Drv Frequency-dependent properties file   722 does not exist.
          IDoAtm=111111111111
          Differentiating once with respect to electric field.
                with respect to dipole field.
          Differentiating once with respect to nuclear coordinates.
          There are    39 degrees of freedom in the 1st order CPHF.  IDoFFX=5.
     36 vectors produced by pass  0 Test12= 1.16D-14 2.56D-09 XBig12= 1.64D+03 2.53D+01.
 AX will form    36 AO Fock derivatives at one time.
     36 vectors produced by pass  1 Test12= 1.16D-14 2.56D-09 XBig12= 1.47D+03 1.25D+01.
     36 vectors produced by pass  2 Test12= 1.16D-14 2.56D-09 XBig12= 1.52D+01 9.74D-01.
     36 vectors produced by pass  3 Test12= 1.16D-14 2.56D-09 XBig12= 1.24D-01 1.46D-01.
     36 vectors produced by pass  4 Test12= 1.16D-14 2.56D-09 XBig12= 4.44D-04 5.92D-03.
     36 vectors produced by pass  5 Test12= 1.16D-14 2.56D-09 XBig12= 1.18D-06 3.16D-04.
     20 vectors produced by pass  6 Test12= 1.16D-14 2.56D-09 XBig12= 2.97D-09 8.59D-06.
      3 vectors produced by pass  7 Test12= 1.16D-14 2.56D-09 XBig12= 3.50D-12 4.11D-07.
      1 vectors produced by pass  8 Test12= 1.16D-14 2.56D-09 XBig12= 8.43D-16 5.51D-09.
 Inverted reduced A of dimension   240 with in-core refinement.
 Isotropic polarizability for W=    0.000000      156.30 Bohr**3.
 End of Minotr Frequency-dependent properties file   721 does not exist.
 End of Minotr Frequency-dependent properties file   722 does not exist.

 **********************************************************************

            Population analysis using the SCF density.

 **********************************************************************

 Orbital symmetries:
       Occupied  (A) (A) (A) (A) (A) (A) (A) (A) (A) (A) (A) (A)
                 (A) (A) (A) (A) (A) (A) (A) (A) (A) (A) (A) (A)
                 (A) (A) (A) (A) (A) (A) (A) (A) (A) (A) (A) (A)
                 (A) (A) (A) (A) (A) (A) (A) (A) (A) (A) (A) (A)
                 (A) (A) (A) (A) (A) (A) (A) (A) (A) (A) (A) (A)
                 (A) (A) (A) (A) (A) (A) (A) (A) (A) (A) (A) (A)
                 (A) (A) (A) (A) (A) (A) (A) (A) (A) (A) (A) (A)
       Virtual   (A) (A) (A) (A) (A) (A) (A) (A) (A) (A) (A) (A)
                 (A) (A) (A) (A) (A) (A) (A) (A) (A) (A) (A) (A)
                 (A) (A) (A) (A) (A) (A) (A) (A) (A) (A) (A) (A)
                 (A) (A) (A) (A) (A) (A) (A) (A) (A) (A) (A) (A)
                 (A) (A) (A) (A) (A) (A)
 The electronic state is 1-A.
 Alpha  occ. eigenvalues -- -176.02619-176.02618-176.02614-176.02614-176.01414
 Alpha  occ. eigenvalues -- -176.01410 -19.30093 -19.30027 -19.29941 -19.29880
 Alpha  occ. eigenvalues --  -19.29144 -19.28946 -16.40210 -16.40204 -16.40195
 Alpha  occ. eigenvalues --  -16.40192 -16.39932 -16.39930 -16.39912 -16.39912
 Alpha  occ. eigenvalues --  -16.39872 -16.39869 -16.39868 -16.39867 -16.39148
 Alpha  occ. eigenvalues --  -16.39123 -16.39050 -16.39050 -16.38820 -16.38819
 Alpha  occ. eigenvalues --   -9.52516  -9.52513  -9.50413  -9.50411  -9.50408
 Alpha  occ. eigenvalues --   -9.50402  -2.28968  -2.28966  -2.28848  -2.28834
 Alpha  occ. eigenvalues --   -2.28127  -2.28101  -1.47263  -1.47201  -1.46361
 Alpha  occ. eigenvalues --   -1.46179  -1.45849  -1.45454  -1.45384  -1.45346
 Alpha  occ. eigenvalues --   -1.45237  -1.45209  -1.45022  -1.44941  -1.44935
 Alpha  occ. eigenvalues --   -1.44860  -1.44686  -1.44624  -1.43750  -1.43669
 Alpha  occ. eigenvalues --   -0.40216  -0.36304  -0.35157  -0.35067  -0.34480
 Alpha  occ. eigenvalues --   -0.32546  -0.14727  -0.14570  -0.13471  -0.13076
 Alpha  occ. eigenvalues --   -0.10312  -0.09880  -0.09878  -0.08144  -0.07199
 Alpha  occ. eigenvalues --   -0.06837  -0.06279  -0.05894  -0.05013  -0.04991
 Alpha  occ. eigenvalues --   -0.04616  -0.03942  -0.03352  -0.02311
 Alpha virt. eigenvalues --    0.03043   0.03945   0.03983   0.04022   0.06386
 Alpha virt. eigenvalues --    0.06456   0.06764   0.08632   0.08994   0.09618
 Alpha virt. eigenvalues --    0.10180   0.10306   0.11962   0.12576   0.12675
 Alpha virt. eigenvalues --    0.12987   0.13065   0.14025   0.16067   0.16358
 Alpha virt. eigenvalues --    0.16870   0.17325   0.19025   0.22317   0.24193
 Alpha virt. eigenvalues --    0.24237   0.24433   0.26543   0.27296   0.27306
 Alpha virt. eigenvalues --    0.29974   0.31094   0.31169   0.32407   0.49345
 Alpha virt. eigenvalues --    0.49550   0.50129   0.51446   0.53260   0.55289
 Alpha virt. eigenvalues --    0.56590   0.56908   0.58208   0.59432   0.62083
 Alpha virt. eigenvalues --    0.62483   0.64789   0.68082   0.71215   0.71710
 Alpha virt. eigenvalues --    0.74717   0.80155   0.80739   0.85591
          Condensed to atoms (all electrons):
              1          2          3          4          5          6
     1  Ti  20.305711   0.059186   0.059179   0.059186   0.059179   0.030515
     2  Ti   0.059186  20.460549   0.067726  -0.019325   0.000159   0.059178
     3  Ti   0.059179   0.067726  20.460549   0.000159  -0.019325   0.059185
     4  Ti   0.059186  -0.019325   0.000159  20.460549   0.067726   0.059178
     5  Ti   0.059179   0.000159  -0.019325   0.067726  20.460549   0.059185
     6  Ti   0.030515   0.059178   0.059185   0.059178   0.059185  20.305710
     7  C    0.335885   0.367502   0.367485  -0.000084  -0.000084  -0.003522
     8  C    0.335885  -0.000084  -0.000084   0.367502   0.367486  -0.003522
     9  C    0.228540   0.361385  -0.004295   0.361385  -0.004295   0.228587
    10  C    0.228584  -0.004295   0.361385  -0.004295   0.361385   0.228543
    11  C   -0.003522   0.367486   0.367503  -0.000084  -0.000084   0.335885
    12  C   -0.003522  -0.000084  -0.000084   0.367486   0.367502   0.335885
              7          8          9         10         11         12
     1  Ti   0.335885   0.335885   0.228540   0.228584  -0.003522  -0.003522
     2  Ti   0.367502  -0.000084   0.361385  -0.004295   0.367486  -0.000084
     3  Ti   0.367485  -0.000084  -0.004295   0.361385   0.367503  -0.000084
     4  Ti  -0.000084   0.367502   0.361385  -0.004295  -0.000084   0.367486
     5  Ti  -0.000084   0.367486  -0.004295   0.361385  -0.000084   0.367502
     6  Ti  -0.003522  -0.003522   0.228587   0.228543   0.335885   0.335885
     7  C    5.247971  -0.000080  -0.009592  -0.009593  -0.011575   0.000002
     8  C   -0.000080   5.247970  -0.009592  -0.009593   0.000002  -0.011575
     9  C   -0.009592  -0.009592   5.170137  -0.005272  -0.009593  -0.009593
    10  C   -0.009593  -0.009593  -0.005272   5.170136  -0.009592  -0.009592
    11  C   -0.011575   0.000002  -0.009593  -0.009592   5.247970  -0.000080
    12  C    0.000002  -0.011575  -0.009593  -0.009592  -0.000080   5.247970
 Mulliken atomic charges:
              1
     1  Ti   0.305194
     2  Ti   0.280618
     3  Ti   0.280618
     4  Ti   0.280618
     5  Ti   0.280618
     6  Ti   0.305195
     7  C   -0.284315
     8  C   -0.284315
     9  C   -0.297802
    10  C   -0.297802
    11  C   -0.284314
    12  C   -0.284314
 Sum of Mulliken atomic charges =   0.00000
 Mulliken charges with hydrogens summed into heavy atoms:
              1
     1  Ti   0.305194
     2  Ti   0.280618
     3  Ti   0.280618
     4  Ti   0.280618
     5  Ti   0.280618
     6  Ti   0.305195
     7  C   -0.284315
     8  C   -0.284315
     9  C   -0.297802
    10  C   -0.297802
    11  C   -0.284314
    12  C   -0.284314
 Sum of Mulliken charges with hydrogens summed into heavy atoms =   0.00000
 APT atomic charges:
              1
     1  Ti   0.700550
     2  Ti   0.718761
     3  Ti   0.718761
     4  Ti   0.718761
     5  Ti   0.718761
     6  Ti   0.700557
     7  C   -0.719654
     8  C   -0.719654
     9  C   -0.698764
    10  C   -0.698764
    11  C   -0.719657
    12  C   -0.719657
 Sum of APT charges=   0.00000
 APT Atomic charges with hydrogens summed into heavy atoms:
              1
     1  Ti   0.700550
     2  Ti   0.718761
     3  Ti   0.718761
     4  Ti   0.718761
     5  Ti   0.718761
     6  Ti   0.700557
     7  C   -0.719654
     8  C   -0.719654
     9  C   -0.698764
    10  C   -0.698764
    11  C   -0.719657
    12  C   -0.719657
 Sum of APT charges=   0.00000
 Electronic spatial extent (au):  <R**2>=           2948.4916
 Charge=              0.0000 electrons
 Dipole moment (field-independent basis, Debye):
    X=              0.0000    Y=              0.0000    Z=              0.0000  Tot=              0.0000
 Quadrupole moment (field-independent basis, Debye-Ang):
   XX=           -107.7665   YY=            -98.8209   ZZ=           -127.8948
   XY=              0.0000   XZ=              0.0000   YZ=              0.0009
 Traceless Quadrupole moment (field-independent basis, Debye-Ang):
   XX=              3.7275   YY=             12.6732   ZZ=            -16.4007
   XY=              0.0000   XZ=              0.0000   YZ=              0.0009
 Octapole moment (field-independent basis, Debye-Ang**2):
  XXX=              0.0000  YYY=              0.0001  ZZZ=              0.0005  XYY=              0.0000
  XXY=              0.0000  XXZ=             -0.0002  XZZ=              0.0000  YZZ=              0.0000
  YYZ=             -0.0002  XYZ=              0.0000
 Hexadecapole moment (field-independent basis, Debye-Ang**3):
 XXXX=          -1857.4397 YYYY=           -779.3027 ZZZZ=           -739.1787 XXXY=              0.0000
 XXXZ=              0.0000 YYYX=              0.0000 YYYZ=              0.0061 ZZZX=              0.0001
 ZZZY=             -0.0009 XXYY=           -264.0132 XXZZ=           -552.5432 YYZZ=           -273.0606
 XXYZ=              0.0067 YYXZ=              0.0000 ZZXY=              0.0000
 N-N= 2.340798491955D+03 E-N=-1.711914122674D+04  KE= 5.234472857431D+03
  Exact polarizability: 198.507   0.000 147.545   0.000   0.000 122.845
 Approx polarizability: 886.744   0.000 715.763   0.000   0.001 571.145
 Calling FoFJK, ICntrl=    100527 FMM=F ISym2X=0 I1Cent= 0 IOpClX= 0 NMat=1 NMatS=1 NMatT=0.
 Full mass-weighted force constant matrix:
 Low frequencies ---   -9.0871   -2.1117   -0.0026   -0.0022    0.0022   11.5208
 Low frequencies ---  242.6076  253.8678  291.0721
 Harmonic frequencies (cm**-1), IR intensities (KM/Mole), Raman scattering
 activities (A**4/AMU), depolarization ratios for plane and unpolarized
 incident light, reduced masses (AMU), force constants (mDyne/A),
 and normal coordinates:
                     1                      2                      3
                     A                      A                      A
 Frequencies --   242.6076               253.8678               291.0721
 Red. masses --    30.4472                41.4663                28.2614
 Frc consts  --     1.0559                 1.5746                 1.4107
 IR Inten    --     0.0000                 0.0576                 2.7388
  Atom  AN      X      Y      Z        X      Y      Z        X      Y      Z
     1  22     0.00   0.00   0.00     0.00   0.45   0.00     0.00   0.00   0.39
     2  22     0.00   0.00   0.36    -0.24  -0.21   0.00     0.00   0.00  -0.19
     3  22     0.00   0.00  -0.36     0.24  -0.21   0.00     0.00   0.00  -0.19
     4  22     0.00   0.00  -0.36     0.24  -0.21   0.00     0.00   0.00  -0.19
     5  22     0.00   0.00   0.36    -0.24  -0.21   0.00     0.00   0.00  -0.19
     6  22     0.00   0.00   0.00     0.00   0.45   0.00     0.00   0.00   0.39
     7   6     0.00  -0.35   0.00     0.00  -0.15   0.00    -0.09   0.00  -0.21
     8   6     0.00   0.35   0.00     0.00  -0.15   0.00     0.09   0.00  -0.21
     9   6     0.00   0.00   0.00     0.00   0.21   0.00     0.00   0.00   0.41
    10   6     0.00   0.00   0.00     0.00   0.21   0.00     0.00   0.00   0.41
    11   6     0.00   0.35   0.00     0.00  -0.15   0.00     0.09   0.00  -0.21
    12   6     0.00  -0.35   0.00     0.00  -0.15   0.00    -0.09   0.00  -0.21
                     4                      5                      6
                     A                      A                      A
 Frequencies --   295.2193               332.5395               337.5056
 Red. masses --    35.4238                30.5117                39.7238
 Frc consts  --     1.8190                 1.9879                 2.6660
 IR Inten    --     0.0000                13.0692                 0.0000
  Atom  AN      X      Y      Z        X      Y      Z        X      Y      Z
     1  22     0.00   0.00   0.00     0.30   0.00   0.00     0.00   0.00   0.46
     2  22     0.35  -0.20   0.00    -0.20  -0.21   0.00     0.24  -0.16   0.00
     3  22    -0.35  -0.20   0.00    -0.20   0.21   0.00     0.24   0.16   0.00
     4  22     0.35   0.20   0.00    -0.20   0.21   0.00    -0.24  -0.16   0.00
     5  22    -0.35   0.20   0.00    -0.20  -0.21   0.00    -0.24   0.16   0.00
     6  22     0.00   0.00   0.00     0.30   0.00   0.00     0.00   0.00  -0.46
     7   6     0.00  -0.25   0.00     0.27   0.00   0.18     0.07   0.00   0.19
     8   6     0.00   0.25   0.00     0.27   0.00  -0.18    -0.07   0.00   0.19
     9   6     0.23   0.00   0.00    -0.17   0.00   0.00     0.00  -0.19   0.00
    10   6    -0.23   0.00   0.00    -0.17   0.00   0.00     0.00   0.19   0.00
    11   6     0.00  -0.25   0.00     0.27   0.00  -0.18     0.07   0.00  -0.19
    12   6     0.00   0.25   0.00     0.27   0.00   0.18    -0.07   0.00  -0.19
                     7                      8                      9
                     A                      A                      A
 Frequencies --   345.7444               365.6726               380.5121
 Red. masses --    24.3453                41.7056                31.4460
 Frc consts  --     1.7146                 3.2857                 2.6826
 IR Inten    --     0.0000                 0.0000                 0.0000
  Atom  AN      X      Y      Z        X      Y      Z        X      Y      Z
     1  22     0.35   0.00   0.00     0.00   0.53   0.00     0.00   0.00  -0.07
     2  22     0.00   0.00  -0.15     0.00   0.00   0.25     0.28   0.23   0.00
     3  22     0.00   0.00  -0.15     0.00   0.00  -0.25     0.28  -0.23   0.00
     4  22     0.00   0.00   0.15     0.00   0.00   0.25    -0.28   0.23   0.00
     5  22     0.00   0.00   0.15     0.00   0.00  -0.25    -0.28  -0.23   0.00
     6  22    -0.35   0.00   0.00     0.00  -0.53   0.00     0.00   0.00   0.07
     7   6     0.37   0.00  -0.16     0.00  -0.19   0.00     0.13   0.00  -0.19
     8   6     0.37   0.00   0.16     0.00  -0.19   0.00    -0.13   0.00  -0.19
     9   6     0.00   0.00   0.00     0.00   0.00  -0.13     0.00   0.35   0.00
    10   6     0.00   0.00   0.00     0.00   0.00   0.13     0.00  -0.35   0.00
    11   6    -0.37   0.00  -0.16     0.00   0.19   0.00     0.13   0.00   0.19
    12   6    -0.37   0.00   0.16     0.00   0.19   0.00    -0.13   0.00   0.19
                    10                     11                     12
                     A                      A                      A
 Frequencies --   434.4694               441.1560               454.4485
 Red. masses --    30.3298                33.0729                34.3077
 Frc consts  --     3.3732                 3.7923                 4.1746
 IR Inten    --    23.1027                 6.5660                 0.0000
  Atom  AN      X      Y      Z        X      Y      Z        X      Y      Z
     1  22     0.20   0.00   0.00     0.00   0.18   0.00     0.00   0.00   0.36
     2  22    -0.15   0.29   0.00     0.34  -0.11   0.00    -0.15   0.26   0.00
     3  22    -0.15  -0.29   0.00    -0.34  -0.11   0.00    -0.15  -0.26   0.00
     4  22    -0.15  -0.29   0.00    -0.34  -0.11   0.00     0.15   0.26   0.00
     5  22    -0.15   0.29   0.00     0.34  -0.11   0.00     0.15  -0.26   0.00
     6  22     0.20   0.00   0.00     0.00   0.18   0.00     0.00   0.00  -0.36
     7   6     0.20   0.00  -0.29     0.00  -0.12   0.00    -0.11   0.00  -0.22
     8   6     0.20   0.00   0.29     0.00  -0.12   0.00     0.11   0.00  -0.22
     9   6    -0.05   0.00   0.00     0.00   0.42   0.00     0.00  -0.26   0.00
    10   6    -0.05   0.00   0.00     0.00   0.42   0.00     0.00   0.26   0.00
    11   6     0.20   0.00   0.29     0.00  -0.12   0.00    -0.11   0.00   0.22
    12   6     0.20   0.00  -0.29     0.00  -0.12   0.00     0.11   0.00   0.22
                    13                     14                     15
                     A                      A                      A
 Frequencies --   521.9865               522.8267               614.0520
 Red. masses --    13.4294                14.3010                14.2532
 Frc consts  --     2.1559                 2.3032                 3.1664
 IR Inten    --     0.0000                 7.7875                36.8945
  Atom  AN      X      Y      Z        X      Y      Z        X      Y      Z
     1  22     0.00  -0.10   0.00     0.00   0.00  -0.17     0.00   0.15   0.00
     2  22     0.00   0.00   0.07     0.00   0.00   0.04     0.07  -0.02   0.00
     3  22     0.00   0.00  -0.07     0.00   0.00   0.04    -0.07  -0.02   0.00
     4  22     0.00   0.00   0.07     0.00   0.00   0.04    -0.07  -0.02   0.00
     5  22     0.00   0.00  -0.07     0.00   0.00   0.04     0.07  -0.02   0.00
     6  22     0.00   0.10   0.00     0.00   0.00  -0.17     0.00   0.15   0.00
     7   6     0.00   0.08   0.00    -0.25   0.00  -0.10     0.00   0.12   0.00
     8   6     0.00   0.08   0.00     0.25   0.00  -0.10     0.00   0.12   0.00
     9   6     0.00   0.00  -0.68     0.00   0.00   0.57     0.00  -0.66   0.00
    10   6     0.00   0.00   0.68     0.00   0.00   0.57     0.00  -0.66   0.00
    11   6     0.00  -0.08   0.00     0.25   0.00  -0.10     0.00   0.12   0.00
    12   6     0.00  -0.08   0.00    -0.25   0.00  -0.10     0.00   0.12   0.00
                    16                     17                     18
                     A                      A                      A
 Frequencies --   618.4826               634.6487               655.1750
 Red. masses --    13.7900                14.0163                15.6556
 Frc consts  --     3.1079                 3.3262                 3.9595
 IR Inten    --     0.0000                 0.0000                 0.0000
  Atom  AN      X      Y      Z        X      Y      Z        X      Y      Z
     1  22     0.00   0.00   0.11     0.00   0.00   0.00    -0.21   0.00   0.00
     2  22    -0.08  -0.01   0.00     0.00   0.00   0.12     0.00   0.00  -0.07
     3  22    -0.08   0.01   0.00     0.00   0.00  -0.12     0.00   0.00  -0.07
     4  22     0.08  -0.01   0.00     0.00   0.00  -0.12     0.00   0.00   0.07
     5  22     0.08   0.01   0.00     0.00   0.00   0.12     0.00   0.00   0.07
     6  22     0.00   0.00  -0.11     0.00   0.00   0.00     0.21   0.00   0.00
     7   6     0.10   0.00   0.08     0.00   0.49   0.00     0.40   0.00   0.26
     8   6    -0.10   0.00   0.08     0.00  -0.49   0.00     0.40   0.00  -0.26
     9   6     0.00   0.66   0.00     0.00   0.00   0.00     0.00   0.00   0.00
    10   6     0.00  -0.66   0.00     0.00   0.00   0.00     0.00   0.00   0.00
    11   6     0.10   0.00  -0.08     0.00  -0.49   0.00    -0.40   0.00   0.26
    12   6    -0.10   0.00  -0.08     0.00   0.49   0.00    -0.40   0.00  -0.26
                    19                     20                     21
                     A                      A                      A
 Frequencies --   661.4404               687.2942               712.1833
 Red. masses --    13.4349                12.2357                14.4017
 Frc consts  --     3.4631                 3.4054                 4.3038
 IR Inten    --     0.0000                17.6025                 0.0000
  Atom  AN      X      Y      Z        X      Y      Z        X      Y      Z
     1  22     0.00   0.00   0.00     0.00   0.00   0.05     0.00   0.00   0.00
     2  22     0.00   0.00   0.10     0.00   0.00   0.02    -0.02  -0.13   0.00
     3  22     0.00   0.00  -0.10     0.00   0.00   0.02     0.02  -0.13   0.00
     4  22     0.00   0.00   0.10     0.00   0.00   0.02    -0.02   0.13   0.00
     5  22     0.00   0.00  -0.10     0.00   0.00   0.02     0.02   0.13   0.00
     6  22     0.00   0.00   0.00     0.00   0.00   0.05     0.00   0.00   0.00
     7   6     0.00   0.47   0.00    -0.44   0.00  -0.01     0.00   0.43   0.00
     8   6     0.00   0.47   0.00     0.44   0.00  -0.01     0.00  -0.43   0.00
     9   6     0.00   0.00   0.19     0.00   0.00  -0.33     0.30   0.00   0.00
    10   6     0.00   0.00  -0.19     0.00   0.00  -0.33    -0.30   0.00   0.00
    11   6     0.00  -0.47   0.00     0.44   0.00  -0.01     0.00   0.43   0.00
    12   6     0.00  -0.47   0.00    -0.44   0.00  -0.01     0.00  -0.43   0.00
                    22                     23                     24
                     A                      A                      A
 Frequencies --   717.2185               733.3622               798.0385
 Red. masses --    12.2705                14.7324                14.0227
 Frc consts  --     3.7189                 4.6683                 5.2618
 IR Inten    --     0.0000                67.5411               213.3167
  Atom  AN      X      Y      Z        X      Y      Z        X      Y      Z
     1  22     0.00   0.00  -0.01     0.18   0.00   0.00     0.00   0.00   0.03
     2  22    -0.04   0.02   0.00    -0.02  -0.06   0.00     0.00   0.00   0.12
     3  22    -0.04  -0.02   0.00    -0.02   0.06   0.00     0.00   0.00   0.12
     4  22     0.04   0.02   0.00    -0.02   0.06   0.00     0.00   0.00   0.12
     5  22     0.04  -0.02   0.00    -0.02  -0.06   0.00     0.00   0.00   0.12
     6  22     0.00   0.00   0.01     0.18   0.00   0.00     0.00   0.00   0.03
     7   6     0.48   0.00   0.03    -0.39   0.00  -0.25     0.08   0.00  -0.47
     8   6    -0.48   0.00   0.03    -0.39   0.00   0.25    -0.08   0.00  -0.47
     9   6     0.00  -0.18   0.00     0.20   0.00   0.00     0.00   0.00  -0.12
    10   6     0.00   0.18   0.00     0.20   0.00   0.00     0.00   0.00  -0.12
    11   6     0.48   0.00  -0.03    -0.39   0.00   0.25    -0.08   0.00  -0.47
    12   6    -0.48   0.00  -0.03    -0.39   0.00  -0.25     0.08   0.00  -0.47
                    25                     26                     27
                     A                      A                      A
 Frequencies --   799.9070               805.8248               812.3013
 Red. masses --    13.8059                14.4364                14.8006
 Frc consts  --     5.2047                 5.5232                 5.7539
 IR Inten    --     0.0000               109.6342                 0.0000
  Atom  AN      X      Y      Z        X      Y      Z        X      Y      Z
     1  22     0.00   0.00  -0.03    -0.11   0.00   0.00    -0.12   0.00   0.00
     2  22     0.00   0.11   0.00     0.00  -0.10   0.00     0.00   0.00   0.11
     3  22     0.00  -0.11   0.00     0.00   0.10   0.00     0.00   0.00   0.11
     4  22     0.00   0.11   0.00     0.00   0.10   0.00     0.00   0.00  -0.11
     5  22     0.00  -0.11   0.00     0.00  -0.10   0.00     0.00   0.00  -0.11
     6  22     0.00   0.00   0.03    -0.11   0.00   0.00     0.12   0.00   0.00
     7   6    -0.05   0.00   0.48     0.23   0.00  -0.43     0.23   0.00  -0.42
     8   6     0.05   0.00   0.48     0.23   0.00   0.43     0.23   0.00   0.42
     9   6     0.00  -0.07   0.00    -0.02   0.00   0.00     0.00   0.00   0.00
    10   6     0.00   0.07   0.00    -0.02   0.00   0.00     0.00   0.00   0.00
    11   6    -0.05   0.00  -0.48     0.23   0.00   0.43    -0.23   0.00  -0.42
    12   6     0.05   0.00  -0.48     0.23   0.00  -0.43    -0.23   0.00   0.42
                    28                     29                     30
                     A                      A                      A
 Frequencies --   819.9230               951.0726               986.0147
 Red. masses --    14.0134                12.8371                13.1039
 Frc consts  --     5.5506                 6.8414                 7.5061
 IR Inten    --   209.5563                 0.0000               268.0730
  Atom  AN      X      Y      Z        X      Y      Z        X      Y      Z
     1  22     0.00   0.05   0.00     0.00   0.00   0.00     0.06   0.00   0.00
     2  22     0.01   0.11   0.00    -0.07   0.03   0.00     0.08   0.00   0.00
     3  22    -0.01   0.11   0.00     0.07   0.03   0.00     0.08   0.00   0.00
     4  22    -0.01   0.11   0.00    -0.07  -0.03   0.00     0.08   0.00   0.00
     5  22     0.01   0.11   0.00     0.07  -0.03   0.00     0.08   0.00   0.00
     6  22     0.00   0.05   0.00     0.00   0.00   0.00     0.06   0.00   0.00
     7   6     0.00  -0.47   0.00     0.00  -0.20   0.00    -0.09   0.00  -0.06
     8   6     0.00  -0.47   0.00     0.00   0.20   0.00    -0.09   0.00   0.06
     9   6     0.00  -0.15   0.00     0.64   0.00   0.00    -0.68   0.00   0.00
    10   6     0.00  -0.15   0.00    -0.64   0.00   0.00    -0.68   0.00   0.00
    11   6     0.00  -0.47   0.00     0.00  -0.20   0.00    -0.09   0.00   0.06
    12   6     0.00  -0.47   0.00     0.00   0.20   0.00    -0.09   0.00  -0.06

 -------------------
 - Thermochemistry -
 -------------------
 Temperature   298.150 Kelvin.  Pressure   1.00000 Atm.
 Atom     1 has atomic number 22 and mass  47.94795
 Atom     2 has atomic number 22 and mass  47.94795
 Atom     3 has atomic number 22 and mass  47.94795
 Atom     4 has atomic number 22 and mass  47.94795
 Atom     5 has atomic number 22 and mass  47.94795
 Atom     6 has atomic number 22 and mass  47.94795
 Atom     7 has atomic number  6 and mass  12.00000
 Atom     8 has atomic number  6 and mass  12.00000
 Atom     9 has atomic number  6 and mass  12.00000
 Atom    10 has atomic number  6 and mass  12.00000
 Atom    11 has atomic number  6 and mass  12.00000
 Atom    12 has atomic number  6 and mass  12.00000
 Molecular mass:   359.68768 amu.
 Principal axes and moments of inertia in atomic units:
                           1         2         3
     Eigenvalues --  2440.860214370.658994729.92968
           X            1.00000   0.00000   0.00000
           Y            0.00000   1.00000   0.00000
           Z            0.00000   0.00000   1.00000
 This molecule is an asymmetric top.
 Rotational symmetry number  1.
 Warning -- assumption of classical behavior for rotation
           may cause significant error
 Rotational temperatures (Kelvin)      0.03548     0.01982     0.01831
 Rotational constants (GHZ):           0.73939     0.41292     0.38156
 Zero-point vibrational energy     103037.8 (Joules/Mol)
                                   24.62661 (Kcal/Mol)
 Warning -- explicit consideration of  16 degrees of freedom as
           vibrations may cause significant error
 Vibrational temperatures:    349.06   365.26   418.79   424.75   478.45
          (Kelvin)            485.59   497.45   526.12   547.47   625.10
                              634.72   653.85   751.02   752.23   883.48
                              889.86   913.12   942.65   951.66   988.86
                             1024.67  1031.92  1055.14  1148.20  1150.89
                             1159.40  1168.72  1179.68  1368.38  1418.65
 
 Zero-point correction=                           0.039245 (Hartree/Particle)
 Thermal correction to Energy=                    0.048536
 Thermal correction to Enthalpy=                  0.049480
 Thermal correction to Gibbs Free Energy=         0.003858
 Sum of electronic and zero-point Energies=          -5268.349377
 Sum of electronic and thermal Energies=             -5268.340086
 Sum of electronic and thermal Enthalpies=           -5268.339142
 Sum of electronic and thermal Free Energies=        -5268.384764
 
                     E (Thermal)             CV                S
                      KCal/Mol        Cal/Mol-Kelvin    Cal/Mol-Kelvin
 Total                   30.457             39.265             96.020
 Electronic               0.000              0.000              0.000
 Translational            0.889              2.981             43.534
 Rotational               0.889              2.981             32.290
 Vibrational             28.679             33.303             20.197
 Vibration     1          0.659              1.775              1.784
 Vibration     2          0.665              1.756              1.704
 Vibration     3          0.687              1.690              1.468
 Vibration     4          0.689              1.683              1.444
 Vibration     5          0.714              1.611              1.248
 Vibration     6          0.718              1.601              1.224
 Vibration     7          0.724              1.584              1.186
 Vibration     8          0.739              1.543              1.098
 Vibration     9          0.750              1.512              1.037
 Vibration    10          0.795              1.395              0.844
 Vibration    11          0.801              1.380              0.823
 Vibration    12          0.813              1.351              0.782
 Vibration    13          0.877              1.201              0.605
 Vibration    14          0.878              1.199              0.603
 Vibration    15          0.973              1.002              0.426
 Vibration    16          0.978              0.993              0.419
                       Q            Log10(Q)             Ln(Q)
 Total Bot       0.168108D-01         -1.774411         -4.085732
 Total V=0       0.189235D+17         16.277001         37.479179
 Vib (Bot)       0.246562D-16        -16.608073        -38.241501
 Vib (Bot)    1  0.807258D+00         -0.092988         -0.214113
 Vib (Bot)    2  0.767375D+00         -0.114992         -0.264780
 Vib (Bot)    3  0.656612D+00         -0.182691         -0.420662
 Vib (Bot)    4  0.645911D+00         -0.189827         -0.437094
 Vib (Bot)    5  0.560997D+00         -0.251039         -0.578039
 Vib (Bot)    6  0.551034D+00         -0.258822         -0.595959
 Vib (Bot)    7  0.535098D+00         -0.271567         -0.625306
 Vib (Bot)    8  0.499339D+00         -0.301604         -0.694469
 Vib (Bot)    9  0.474994D+00         -0.323312         -0.744454
 Vib (Bot)   10  0.399636D+00         -0.398335         -0.917201
 Vib (Bot)   11  0.391499D+00         -0.407270         -0.937773
 Vib (Bot)   12  0.375987D+00         -0.424827         -0.978201
 Vib (Bot)   13  0.308666D+00         -0.510511         -1.175494
 Vib (Bot)   14  0.307932D+00         -0.511545         -1.177876
 Vib (Bot)   15  0.239651D+00         -0.620422         -1.428574
 Vib (Bot)   16  0.236829D+00         -0.625564         -1.440415
 Vib (V=0)       0.277548D+02          1.443338          3.323410
 Vib (V=0)    1  0.144956D+01          0.161236          0.371260
 Vib (V=0)    2  0.141590D+01          0.151031          0.347762
 Vib (V=0)    3  0.132531D+01          0.122318          0.281648
 Vib (V=0)    4  0.131682D+01          0.119528          0.275222
 Vib (V=0)    5  0.125148D+01          0.097423          0.224325
 Vib (V=0)    6  0.124407D+01          0.094844          0.218387
 Vib (V=0)    7  0.123235D+01          0.090732          0.208919
 Vib (V=0)    8  0.120664D+01          0.081578          0.187840
 Vib (V=0)    9  0.118965D+01          0.075420          0.173660
 Vib (V=0)   10  0.114009D+01          0.056937          0.131103
 Vib (V=0)   11  0.113504D+01          0.055010          0.126665
 Vib (V=0)   12  0.112559D+01          0.051381          0.118310
 Vib (V=0)   13  0.108760D+01          0.036470          0.083974
 Vib (V=0)   14  0.108722D+01          0.036316          0.083620
 Vib (V=0)   15  0.105447D+01          0.023033          0.053034
 Vib (V=0)   16  0.105325D+01          0.022532          0.051883
 Electronic      0.100000D+01          0.000000          0.000000
 Translational   0.268129D+09          8.428344         19.406978
 Rotational      0.254284D+07          6.405319         14.748791
 ***** Axes restored to original set *****
 -------------------------------------------------------------------
 Center     Atomic                   Forces (Hartrees/Bohr)
 Number     Number              X              Y              Z
 -------------------------------------------------------------------
      1       22          -0.000223436    0.000054460   -0.000100515
      2       22          -0.000009362    0.000018446    0.000008626
      3       22           0.000000027   -0.000019882    0.000009157
      4       22          -0.000001137    0.000020343   -0.000009615
      5       22           0.000008187   -0.000018083   -0.000009013
      6       22           0.000223514   -0.000054892    0.000100838
      7        6           0.000021831   -0.000006043   -0.000002133
      8        6           0.000013036   -0.000007992    0.000017267
      9        6          -0.000000789   -0.000142618   -0.000014738
     10        6           0.000003291    0.000142051    0.000015579
     11        6          -0.000013123    0.000008086   -0.000017529
     12        6          -0.000022039    0.000006125    0.000002076
 -------------------------------------------------------------------
 Cartesian Forces:  Max     0.000223514 RMS     0.000068962

 GradGradGradGradGradGradGradGradGradGradGradGradGradGradGradGradGradGrad
 Berny optimization.
 Internal  Forces:  Max     0.000072542 RMS     0.000015521
 Search for a local minimum.
 Step number   1 out of a maximum of    2
 All quantities printed in internal units (Hartrees-Bohrs-Radians)
 Second derivative matrix not updated -- analytic derivatives used.
 ITU=  0
     Eigenvalues ---    0.00291   0.00384   0.02895   0.04186   0.04403
     Eigenvalues ---    0.04887   0.04916   0.05125   0.05734   0.06777
     Eigenvalues ---    0.06923   0.07298   0.07466   0.08016   0.09141
     Eigenvalues ---    0.10238   0.10875   0.11038   0.11678   0.11867
     Eigenvalues ---    0.12104   0.12635   0.14990   0.15038   0.15609
     Eigenvalues ---    0.15798   0.16041   0.16056   0.16363   0.16460
 Angle between quadratic step and forces=  22.61 degrees.
 Linear search not attempted -- first point.
 Iteration  1 RMS(Cart)=  0.00012327 RMS(Int)=  0.00000011
 Iteration  2 RMS(Cart)=  0.00000003 RMS(Int)=  0.00000003
 Variable       Old X    -DE/DX   Delta X   Delta X   Delta X     New X
                                 (Linear)    (Quad)   (Total)
    R1        5.20167  -0.00001   0.00000  -0.00024  -0.00024   5.20143
    R2        5.20166  -0.00001   0.00000  -0.00022  -0.00022   5.20143
    R3        5.20167  -0.00001   0.00000  -0.00024  -0.00024   5.20143
    R4        5.20166  -0.00001   0.00000  -0.00022  -0.00022   5.20143
    R5        5.33501  -0.00007   0.00000  -0.00146  -0.00146   5.33355
    R6        3.79588   0.00001   0.00000   0.00015   0.00015   3.79603
    R7        3.79588   0.00001   0.00000   0.00015   0.00015   3.79603
    R8        4.00336  -0.00007   0.00000  -0.00112  -0.00112   4.00224
    R9        4.00314  -0.00007   0.00000  -0.00090  -0.00090   4.00224
   R10        4.97390   0.00000   0.00000   0.00005   0.00005   4.97394
   R11        5.20166  -0.00001   0.00000  -0.00023  -0.00023   5.20143
   R12        3.69590   0.00001   0.00000   0.00003   0.00003   3.69593
   R13        3.74232   0.00000   0.00000   0.00008   0.00008   3.74240
   R14        3.69595   0.00000   0.00000  -0.00002  -0.00002   3.69593
   R15        5.20168  -0.00001   0.00000  -0.00025  -0.00025   5.20143
   R16        3.69595   0.00000   0.00000  -0.00002  -0.00002   3.69593
   R17        3.74231   0.00000   0.00000   0.00009   0.00009   3.74240
   R18        3.69589   0.00001   0.00000   0.00003   0.00003   3.69593
   R19        4.97390   0.00000   0.00000   0.00005   0.00005   4.97394
   R20        5.20166  -0.00001   0.00000  -0.00023  -0.00023   5.20143
   R21        3.69590   0.00001   0.00000   0.00003   0.00003   3.69593
   R22        3.74232   0.00000   0.00000   0.00008   0.00008   3.74240
   R23        3.69595   0.00000   0.00000  -0.00002  -0.00002   3.69593
   R24        5.20168  -0.00001   0.00000  -0.00025  -0.00025   5.20143
   R25        3.69595   0.00000   0.00000  -0.00002  -0.00002   3.69593
   R26        3.74231   0.00000   0.00000   0.00009   0.00009   3.74240
   R27        3.69590   0.00001   0.00000   0.00003   0.00003   3.69593
   R28        4.00313  -0.00007   0.00000  -0.00089  -0.00089   4.00224
   R29        4.00335  -0.00007   0.00000  -0.00111  -0.00111   4.00224
   R30        3.79589   0.00001   0.00000   0.00014   0.00014   3.79603
   R31        3.79589   0.00001   0.00000   0.00014   0.00014   3.79603
    A1        1.58766   0.00001   0.00000   0.00019   0.00019   1.58785
    A2        2.06467   0.00001   0.00000   0.00027   0.00027   2.06494
    A3        2.37711   0.00001   0.00000   0.00024   0.00024   2.37734
    A4        1.58561   0.00000   0.00000   0.00009   0.00009   1.58570
    A5        2.06467   0.00001   0.00000   0.00027   0.00027   2.06494
    A6        1.58767   0.00001   0.00000   0.00019   0.00019   1.58785
    A7        2.37713   0.00001   0.00000   0.00022   0.00022   2.37734
    A8        1.58557   0.00000   0.00000   0.00013   0.00013   1.58570
    A9        2.37711   0.00001   0.00000   0.00024   0.00024   2.37734
   A10        1.58561   0.00000   0.00000   0.00009   0.00009   1.58570
   A11        2.37713   0.00001   0.00000   0.00022   0.00022   2.37734
   A12        1.58557   0.00000   0.00000   0.00013   0.00013   1.58570
   A13        1.58797   0.00001   0.00000   0.00019   0.00019   1.58815
   A14        1.58797   0.00001   0.00000   0.00019   0.00019   1.58815
   A15        1.58223   0.00001   0.00000   0.00013   0.00013   1.58236
   A16        1.58225   0.00001   0.00000   0.00011   0.00011   1.58236
   A17        1.58223   0.00001   0.00000   0.00013   0.00013   1.58236
   A18        1.58225   0.00001   0.00000   0.00011   0.00011   1.58236
   A19        1.68302  -0.00001   0.00000   0.00005   0.00005   1.68307
   A20        1.64496   0.00000   0.00000  -0.00011  -0.00011   1.64485
   A21        1.70429  -0.00002   0.00000  -0.00020  -0.00020   1.70409
   A22        1.64497   0.00000   0.00000  -0.00013  -0.00013   1.64485
   A23        1.68377  -0.00001   0.00000  -0.00017  -0.00017   1.68359
   A24        1.66428   0.00000   0.00000  -0.00001  -0.00001   1.66427
   A25        1.68371  -0.00001   0.00000  -0.00011  -0.00011   1.68359
   A26        1.64497   0.00000   0.00000  -0.00012  -0.00012   1.64485
   A27        1.70429  -0.00002   0.00000  -0.00020  -0.00020   1.70409
   A28        1.64496   0.00000   0.00000  -0.00011  -0.00011   1.64485
   A29        1.68371  -0.00001   0.00000  -0.00012  -0.00012   1.68359
   A30        1.66428   0.00000   0.00000  -0.00001  -0.00001   1.66427
   A31        1.68376  -0.00001   0.00000  -0.00017  -0.00017   1.68359
   A32        1.64496   0.00000   0.00000  -0.00011  -0.00011   1.64485
   A33        1.70429  -0.00002   0.00000  -0.00020  -0.00020   1.70409
   A34        1.64497   0.00000   0.00000  -0.00013  -0.00013   1.64485
   A35        1.68377  -0.00001   0.00000  -0.00018  -0.00018   1.68359
   A36        1.66428   0.00000   0.00000  -0.00001  -0.00001   1.66427
   A37        1.68371  -0.00001   0.00000  -0.00011  -0.00011   1.68359
   A38        1.64497   0.00000   0.00000  -0.00012  -0.00012   1.64485
   A39        1.70429  -0.00002   0.00000  -0.00020  -0.00020   1.70409
   A40        1.64496   0.00000   0.00000  -0.00011  -0.00011   1.64485
   A41        1.68371  -0.00001   0.00000  -0.00012  -0.00012   1.68359
   A42        1.66428   0.00000   0.00000  -0.00001  -0.00001   1.66427
   A43        1.68376  -0.00001   0.00000  -0.00017  -0.00017   1.68359
   A44        1.58796   0.00001   0.00000   0.00019   0.00019   1.58815
   A45        1.58796   0.00001   0.00000   0.00019   0.00019   1.58815
   A46        1.58766   0.00001   0.00000   0.00019   0.00019   1.58785
   A47        2.06466   0.00001   0.00000   0.00028   0.00028   2.06494
   A48        1.58557   0.00000   0.00000   0.00013   0.00013   1.58570
   A49        2.37712   0.00001   0.00000   0.00022   0.00022   2.37734
   A50        2.06466   0.00001   0.00000   0.00028   0.00028   2.06494
   A51        1.58766   0.00001   0.00000   0.00020   0.00020   1.58785
   A52        1.58561   0.00000   0.00000   0.00009   0.00009   1.58570
   A53        2.37710   0.00001   0.00000   0.00025   0.00025   2.37734
   A54        1.58557   0.00000   0.00000   0.00013   0.00013   1.58570
   A55        2.37712   0.00001   0.00000   0.00022   0.00022   2.37734
   A56        1.58561   0.00000   0.00000   0.00009   0.00009   1.58570
   A57        2.37710   0.00001   0.00000   0.00025   0.00025   2.37734
   A58        1.68303  -0.00001   0.00000   0.00004   0.00004   1.68307
   A59        1.58224   0.00001   0.00000   0.00012   0.00012   1.58236
   A60        1.58224   0.00001   0.00000   0.00012   0.00012   1.58236
   A61        1.58222   0.00001   0.00000   0.00014   0.00014   1.58236
   A62        1.58222   0.00001   0.00000   0.00014   0.00014   1.58236
   A63        2.87461   0.00003   0.00000   0.00039   0.00039   2.87500
   A64        2.87461   0.00003   0.00000   0.00039   0.00039   2.87500
    D1       -1.52862   0.00000   0.00000  -0.00008  -0.00008  -1.52870
    D2       -0.61074   0.00000   0.00000   0.00001   0.00001  -0.61073
    D3       -1.54555  -0.00001   0.00000  -0.00026  -0.00026  -1.54581
    D4        0.05724   0.00000   0.00000   0.00002   0.00002   0.05726
    D5        0.61072   0.00000   0.00000   0.00001   0.00001   0.61073
    D6        1.52861   0.00000   0.00000   0.00010   0.00010   1.52870
    D7        1.54551   0.00002   0.00000   0.00030   0.00030   1.54581
    D8       -0.05722   0.00000   0.00000  -0.00004  -0.00004  -0.05726
    D9        1.52862   0.00000   0.00000   0.00008   0.00008   1.52870
   D10        0.61074   0.00000   0.00000  -0.00001  -0.00001   0.61073
   D11        1.54555   0.00001   0.00000   0.00026   0.00026   1.54581
   D12       -0.05724   0.00000   0.00000  -0.00002  -0.00002  -0.05726
   D13       -0.61072   0.00000   0.00000  -0.00001  -0.00001  -0.61073
   D14       -1.52861   0.00000   0.00000  -0.00010  -0.00010  -1.52870
   D15       -1.54551  -0.00002   0.00000  -0.00030  -0.00030  -1.54581
   D16        0.05722   0.00000   0.00000   0.00004   0.00004   0.05726
   D17        0.00003   0.00000   0.00000  -0.00003  -0.00003   0.00000
   D18        3.14159   0.00000   0.00000   0.00000   0.00000  -3.14159
   D19       -3.14159   0.00000   0.00000   0.00000   0.00000  -3.14159
   D20       -0.00003   0.00000   0.00000   0.00003   0.00003   0.00000
   D21       -0.00008   0.00000   0.00000   0.00008   0.00008   0.00000
   D22        1.52860   0.00000   0.00000   0.00010   0.00010   1.52870
   D23        0.61072   0.00000   0.00000   0.00001   0.00001   0.61073
   D24       -0.05722   0.00000   0.00000  -0.00004  -0.00004  -0.05726
   D25        1.54550   0.00002   0.00000   0.00031   0.00031   1.54581
   D26       -1.53797   0.00001   0.00000   0.00010   0.00010  -1.53787
   D27        0.00033   0.00000   0.00000  -0.00033  -0.00033   0.00000
   D28       -0.83889   0.00000   0.00000  -0.00030  -0.00030  -0.83919
   D29        0.83953   0.00000   0.00000  -0.00035  -0.00035   0.83918
   D30       -0.61074   0.00000   0.00000   0.00001   0.00001  -0.61073
   D31       -1.52862   0.00000   0.00000  -0.00008  -0.00008  -1.52870
   D32        0.05724   0.00000   0.00000   0.00001   0.00001   0.05726
   D33       -1.54555  -0.00001   0.00000  -0.00026  -0.00026  -1.54581
   D34        0.00026   0.00000   0.00000  -0.00026  -0.00026   0.00000
   D35        0.83946   0.00000   0.00000  -0.00027  -0.00027   0.83918
   D36       -0.83896   0.00000   0.00000  -0.00022  -0.00022  -0.83919
   D37        1.53798  -0.00001   0.00000  -0.00011  -0.00011   1.53787
   D38        0.00008   0.00000   0.00000  -0.00008  -0.00008   0.00000
   D39       -1.52860   0.00000   0.00000  -0.00010  -0.00010  -1.52870
   D40       -0.61072   0.00000   0.00000  -0.00001  -0.00001  -0.61073
   D41        0.05722   0.00000   0.00000   0.00004   0.00004   0.05726
   D42       -1.54550  -0.00002   0.00000  -0.00031  -0.00031  -1.54581
   D43        1.53797  -0.00001   0.00000  -0.00010  -0.00010   1.53787
   D44       -0.00033   0.00000   0.00000   0.00033   0.00033   0.00000
   D45        0.83889   0.00000   0.00000   0.00030   0.00030   0.83919
   D46       -0.83953   0.00000   0.00000   0.00035   0.00035  -0.83918
   D47        0.61074   0.00000   0.00000  -0.00001  -0.00001   0.61073
   D48        1.52862   0.00000   0.00000   0.00008   0.00008   1.52870
   D49       -0.05724   0.00000   0.00000  -0.00001  -0.00001  -0.05726
   D50        1.54554   0.00001   0.00000   0.00026   0.00026   1.54581
   D51       -0.00026   0.00000   0.00000   0.00026   0.00026   0.00000
   D52       -0.83946   0.00000   0.00000   0.00027   0.00027  -0.83918
   D53        0.83896   0.00000   0.00000   0.00022   0.00022   0.83919
   D54       -1.53798   0.00001   0.00000   0.00011   0.00011  -1.53787
         Item               Value     Threshold  Converged?
 Maximum Force            0.000073     0.000450     YES
 RMS     Force            0.000016     0.000300     YES
 Maximum Displacement     0.000699     0.001800     YES
 RMS     Displacement     0.000123     0.001200     YES
 Predicted change in Energy=-2.843460D-07
 Optimization completed.
    -- Stationary point found.
                           ----------------------------
                           !   Optimized Parameters   !
                           ! (Angstroms and Degrees)  !
 --------------------------                            --------------------------
 ! Name  Definition              Value          Derivative Info.                !
 --------------------------------------------------------------------------------
 ! R1    R(1,2)                  2.7526         -DE/DX =    0.0                 !
 ! R2    R(1,3)                  2.7526         -DE/DX =    0.0                 !
 ! R3    R(1,4)                  2.7526         -DE/DX =    0.0                 !
 ! R4    R(1,5)                  2.7526         -DE/DX =    0.0                 !
 ! R5    R(1,6)                  2.8232         -DE/DX =   -0.0001              !
 ! R6    R(1,7)                  2.0087         -DE/DX =    0.0                 !
 ! R7    R(1,8)                  2.0087         -DE/DX =    0.0                 !
 ! R8    R(1,9)                  2.1185         -DE/DX =   -0.0001              !
 ! R9    R(1,10)                 2.1184         -DE/DX =   -0.0001              !
 ! R10   R(2,3)                  2.6321         -DE/DX =    0.0                 !
 ! R11   R(2,6)                  2.7526         -DE/DX =    0.0                 !
 ! R12   R(2,7)                  1.9558         -DE/DX =    0.0                 !
 ! R13   R(2,9)                  1.9803         -DE/DX =    0.0                 !
 ! R14   R(2,11)                 1.9558         -DE/DX =    0.0                 !
 ! R15   R(3,6)                  2.7526         -DE/DX =    0.0                 !
 ! R16   R(3,7)                  1.9558         -DE/DX =    0.0                 !
 ! R17   R(3,10)                 1.9803         -DE/DX =    0.0                 !
 ! R18   R(3,11)                 1.9558         -DE/DX =    0.0                 !
 ! R19   R(4,5)                  2.6321         -DE/DX =    0.0                 !
 ! R20   R(4,6)                  2.7526         -DE/DX =    0.0                 !
 ! R21   R(4,8)                  1.9558         -DE/DX =    0.0                 !
 ! R22   R(4,9)                  1.9803         -DE/DX =    0.0                 !
 ! R23   R(4,12)                 1.9558         -DE/DX =    0.0                 !
 ! R24   R(5,6)                  2.7526         -DE/DX =    0.0                 !
 ! R25   R(5,8)                  1.9558         -DE/DX =    0.0                 !
 ! R26   R(5,10)                 1.9803         -DE/DX =    0.0                 !
 ! R27   R(5,12)                 1.9558         -DE/DX =    0.0                 !
 ! R28   R(6,9)                  2.1184         -DE/DX =   -0.0001              !
 ! R29   R(6,10)                 2.1185         -DE/DX =   -0.0001              !
 ! R30   R(6,11)                 2.0087         -DE/DX =    0.0                 !
 ! R31   R(6,12)                 2.0087         -DE/DX =    0.0                 !
 ! A1    A(2,1,4)               90.9663         -DE/DX =    0.0                 !
 ! A2    A(2,1,5)              118.2968         -DE/DX =    0.0                 !
 ! A3    A(2,1,8)              136.1981         -DE/DX =    0.0                 !
 ! A4    A(2,1,10)              90.8487         -DE/DX =    0.0                 !
 ! A5    A(3,1,4)              118.2968         -DE/DX =    0.0                 !
 ! A6    A(3,1,5)               90.9666         -DE/DX =    0.0                 !
 ! A7    A(3,1,8)              136.1994         -DE/DX =    0.0                 !
 ! A8    A(3,1,9)               90.8465         -DE/DX =    0.0                 !
 ! A9    A(4,1,7)              136.1981         -DE/DX =    0.0                 !
 ! A10   A(4,1,10)              90.8487         -DE/DX =    0.0                 !
 ! A11   A(5,1,7)              136.1994         -DE/DX =    0.0                 !
 ! A12   A(5,1,9)               90.8465         -DE/DX =    0.0                 !
 ! A13   A(6,1,7)               90.9838         -DE/DX =    0.0                 !
 ! A14   A(6,1,8)               90.9838         -DE/DX =    0.0                 !
 ! A15   A(7,1,9)               90.6549         -DE/DX =    0.0                 !
 ! A16   A(7,1,10)              90.6561         -DE/DX =    0.0                 !
 ! A17   A(8,1,9)               90.6549         -DE/DX =    0.0                 !
 ! A18   A(8,1,10)              90.6561         -DE/DX =    0.0                 !
 ! A19   A(9,1,10)              96.43           -DE/DX =    0.0                 !
 ! A20   A(1,2,11)              94.2491         -DE/DX =    0.0                 !
 ! A21   A(3,2,9)               97.6484         -DE/DX =    0.0                 !
 ! A22   A(6,2,7)               94.2501         -DE/DX =    0.0                 !
 ! A23   A(7,2,9)               96.4728         -DE/DX =    0.0                 !
 ! A24   A(7,2,11)              95.3562         -DE/DX =    0.0                 !
 ! A25   A(9,2,11)              96.4693         -DE/DX =    0.0                 !
 ! A26   A(1,3,11)              94.25           -DE/DX =    0.0                 !
 ! A27   A(2,3,10)              97.6484         -DE/DX =    0.0                 !
 ! A28   A(6,3,7)               94.2492         -DE/DX =    0.0                 !
 ! A29   A(7,3,10)              96.4696         -DE/DX =    0.0                 !
 ! A30   A(7,3,11)              95.3562         -DE/DX =    0.0                 !
 ! A31   A(10,3,11)             96.4725         -DE/DX =    0.0                 !
 ! A32   A(1,4,12)              94.2491         -DE/DX =    0.0                 !
 ! A33   A(5,4,9)               97.6484         -DE/DX =    0.0                 !
 ! A34   A(6,4,8)               94.2501         -DE/DX =    0.0                 !
 ! A35   A(8,4,9)               96.4729         -DE/DX =    0.0                 !
 ! A36   A(8,4,12)              95.3562         -DE/DX =    0.0                 !
 ! A37   A(9,4,12)              96.4692         -DE/DX =    0.0                 !
 ! A38   A(1,5,12)              94.25           -DE/DX =    0.0                 !
 ! A39   A(4,5,10)              97.6484         -DE/DX =    0.0                 !
 ! A40   A(6,5,8)               94.2492         -DE/DX =    0.0                 !
 ! A41   A(8,5,10)              96.4696         -DE/DX =    0.0                 !
 ! A42   A(8,5,12)              95.3562         -DE/DX =    0.0                 !
 ! A43   A(10,5,12)             96.4725         -DE/DX =    0.0                 !
 ! A44   A(1,6,11)              90.9835         -DE/DX =    0.0                 !
 ! A45   A(1,6,12)              90.9835         -DE/DX =    0.0                 !
 ! A46   A(2,6,4)               90.9665         -DE/DX =    0.0                 !
 ! A47   A(2,6,5)              118.2965         -DE/DX =    0.0                 !
 ! A48   A(2,6,10)              90.8464         -DE/DX =    0.0                 !
 ! A49   A(2,6,12)             136.1991         -DE/DX =    0.0                 !
 ! A50   A(3,6,4)              118.2965         -DE/DX =    0.0                 !
 ! A51   A(3,6,5)               90.9661         -DE/DX =    0.0                 !
 ! A52   A(3,6,9)               90.8487         -DE/DX =    0.0                 !
 ! A53   A(3,6,12)             136.1977         -DE/DX =    0.0                 !
 ! A54   A(4,6,10)              90.8464         -DE/DX =    0.0                 !
 ! A55   A(4,6,11)             136.1991         -DE/DX =    0.0                 !
 ! A56   A(5,6,9)               90.8487         -DE/DX =    0.0                 !
 ! A57   A(5,6,11)             136.1977         -DE/DX =    0.0                 !
 ! A58   A(9,6,10)              96.4304         -DE/DX =    0.0                 !
 ! A59   A(9,6,11)              90.6559         -DE/DX =    0.0                 !
 ! A60   A(9,6,12)              90.6559         -DE/DX =    0.0                 !
 ! A61   A(10,6,11)             90.6547         -DE/DX =    0.0                 !
 ! A62   A(10,6,12)             90.6547         -DE/DX =    0.0                 !
 ! A63   A(2,9,4)              164.7031         -DE/DX =    0.0                 !
 ! A64   A(3,10,5)             164.7032         -DE/DX =    0.0                 !
 ! D1    D(4,1,2,11)           -87.5835         -DE/DX =    0.0                 !
 ! D2    D(5,1,2,11)           -34.9928         -DE/DX =    0.0                 !
 ! D3    D(8,1,2,11)           -88.5536         -DE/DX =    0.0                 !
 ! D4    D(10,1,2,11)            3.2797         -DE/DX =    0.0                 !
 ! D5    D(4,1,3,11)            34.9917         -DE/DX =    0.0                 !
 ! D6    D(5,1,3,11)            87.5827         -DE/DX =    0.0                 !
 ! D7    D(8,1,3,11)            88.5511         -DE/DX =    0.0                 !
 ! D8    D(9,1,3,11)            -3.2783         -DE/DX =    0.0                 !
 ! D9    D(2,1,4,12)            87.5835         -DE/DX =    0.0                 !
 ! D10   D(3,1,4,12)            34.9927         -DE/DX =    0.0                 !
 ! D11   D(7,1,4,12)            88.5536         -DE/DX =    0.0                 !
 ! D12   D(10,1,4,12)           -3.2797         -DE/DX =    0.0                 !
 ! D13   D(2,1,5,12)           -34.9917         -DE/DX =    0.0                 !
 ! D14   D(3,1,5,12)           -87.5826         -DE/DX =    0.0                 !
 ! D15   D(7,1,5,12)           -88.551          -DE/DX =    0.0                 !
 ! D16   D(9,1,5,12)             3.2783         -DE/DX =    0.0                 !
 ! D17   D(7,1,6,11)             0.0017         -DE/DX =    0.0                 !
 ! D18   D(7,1,6,12)          -180.0001         -DE/DX =    0.0                 !
 ! D19   D(8,1,6,11)          -179.9999         -DE/DX =    0.0                 !
 ! D20   D(8,1,6,12)            -0.0017         -DE/DX =    0.0                 !
 ! D21   D(9,2,3,10)            -0.0045         -DE/DX =    0.0                 !
 ! D22   D(7,2,6,4)             87.5824         -DE/DX =    0.0                 !
 ! D23   D(7,2,6,5)             34.9916         -DE/DX =    0.0                 !
 ! D24   D(7,2,6,10)            -3.2785         -DE/DX =    0.0                 !
 ! D25   D(7,2,6,12)            88.5504         -DE/DX =    0.0                 !
 ! D26   D(3,2,7,1)            -88.1194         -DE/DX =    0.0                 !
 ! D27   D(3,2,9,4)              0.0191         -DE/DX =    0.0                 !
 ! D28   D(7,2,9,4)            -48.0647         -DE/DX =    0.0                 !
 ! D29   D(11,2,9,4)            48.1016         -DE/DX =    0.0                 !
 ! D30   D(7,3,6,4)            -34.9928         -DE/DX =    0.0                 !
 ! D31   D(7,3,6,5)            -87.5834         -DE/DX =    0.0                 !
 ! D32   D(7,3,6,9)              3.2798         -DE/DX =    0.0                 !
 ! D33   D(7,3,6,12)           -88.5532         -DE/DX =    0.0                 !
 ! D34   D(2,3,10,5)             0.0147         -DE/DX =    0.0                 !
 ! D35   D(7,3,10,5)            48.0973         -DE/DX =    0.0                 !
 ! D36   D(11,3,10,5)          -48.069          -DE/DX =    0.0                 !
 ! D37   D(6,3,11,2)            88.1196         -DE/DX =    0.0                 !
 ! D38   D(9,4,5,10)             0.0045         -DE/DX =    0.0                 !
 ! D39   D(8,4,6,2)            -87.5824         -DE/DX =    0.0                 !
 ! D40   D(8,4,6,3)            -34.9916         -DE/DX =    0.0                 !
 ! D41   D(8,4,6,10)             3.2785         -DE/DX =    0.0                 !
 ! D42   D(8,4,6,11)           -88.5504         -DE/DX =    0.0                 !
 ! D43   D(5,4,8,1)             88.1194         -DE/DX =    0.0                 !
 ! D44   D(5,4,9,2)             -0.0191         -DE/DX =    0.0                 !
 ! D45   D(8,4,9,2)             48.0647         -DE/DX =    0.0                 !
 ! D46   D(12,4,9,2)           -48.1016         -DE/DX =    0.0                 !
 ! D47   D(8,5,6,2)             34.9928         -DE/DX =    0.0                 !
 ! D48   D(8,5,6,3)             87.5834         -DE/DX =    0.0                 !
 ! D49   D(8,5,6,9)             -3.2798         -DE/DX =    0.0                 !
 ! D50   D(8,5,6,11)            88.5532         -DE/DX =    0.0                 !
 ! D51   D(4,5,10,3)            -0.0147         -DE/DX =    0.0                 !
 ! D52   D(8,5,10,3)           -48.0972         -DE/DX =    0.0                 !
 ! D53   D(12,5,10,3)           48.069          -DE/DX =    0.0                 !
 ! D54   D(6,5,12,4)           -88.1195         -DE/DX =    0.0                 !
 --------------------------------------------------------------------------------
 GradGradGradGradGradGradGradGradGradGradGradGradGradGradGradGradGradGrad

 1\1\GINC-G3NODEN2\Freq\RPBEPBE\STO-3G\C6Ti6\G16PINERO\14-Mar-2019\0\\#
 N Geom=AllCheck Guess=TCheck SCRF=Check GenChk RPBEPBE/STO-3G Freq\\Ti
 C_6\\0,1\Ti,11.2659296479,9.7594064071,10.5762814129\Ti,10.9912192714,
 11.4673178284,8.4351589589\Ti,10.6838154849,8.8845059695,8.0321732872\
 Ti,9.3161920376,11.1154891338,11.9678253608\Ti,9.0087888227,8.53267761
 44,11.5648387333\Ti,8.734069626,10.2405929299,9.4237127166\C,12.153863
 8483,9.9335635399,8.7829335914\C,10.4398613254,9.5735486535,12.3977980
 306\C,10.1844106732,11.550058321,10.2418114682\C,9.8155794005,8.449942
 1396,9.7581791306\C,9.5601482625,10.4264468965,7.6021984205\C,7.846143
 5996,10.0664315664,11.2170668892\\Version=EM64L-G09RevB.01\State=1-A\H
 F=-5268.3886221\RMSD=1.298e-09\RMSF=6.896e-05\ZeroPoint=0.039245\Therm
 al=0.0485359\Dipole=0.000003,-0.0000002,-0.0000003\DipoleDeriv=0.71854
 23,-0.0103681,-0.0976018,-0.0103813,0.5117403,-0.045802,-0.097603,-0.0
 457959,0.8713687,0.6390017,0.0333641,-0.0906512,-0.0025122,0.7047115,0
 .0528563,-0.1056269,-0.025972,0.8125696,0.6428347,0.014044,-0.10715,0.
 0499379,0.7115013,-0.0595271,-0.0921751,0.0192935,0.8019462,0.6428367,
 0.0140462,-0.1071531,0.0499363,0.7115008,-0.0595262,-0.0921755,0.01929
 53,0.801945,0.6390033,0.0333619,-0.0906544,-0.0025118,0.7047111,0.0528
 581,-0.1056267,-0.0259721,0.8125673,0.7185464,-0.0103677,-0.0976043,-0
 .0103811,0.5117482,-0.045802,-0.0976051,-0.0457958,0.8713767,-0.793300
 2,-0.0105974,0.2099026,0.0209777,-0.6092701,-0.0016707,0.0075545,0.022
 4171,-0.7563924,-0.6659846,0.0222625,-0.0977213,-0.0093104,-0.6143467,
 0.0539925,0.1046265,0.0299037,-0.8786319,-0.5410966,-0.0487024,0.18322
 62,-0.0487113,-0.704334,0.0001502,0.1832251,0.0001544,-0.8508609,-0.54
 10971,-0.0487071,0.1832258,-0.0487103,-0.7043329,0.0001507,0.1832253,0
 .0001525,-0.8508617,-0.6659838,0.022262,-0.0977236,-0.009311,-0.614353
 2,0.0539923,0.104626,0.0299034,-0.8786346,-0.7933028,-0.010598,0.20990
 5,0.0209774,-0.6092763,-0.001672,0.0075549,0.0224159,-0.7563921\Polar=
 136.9581353,5.7241794,147.2372186,-28.6137714,-2.3920165,184.7019175\P
 G=C01 [X(C6Ti6)]\NImag=0\\0.29124682,0.00003648,0.20489212,-0.06867812
 ,-0.02300915,0.40124238,0.01508284,0.00591550,-0.02480026,0.25723405,-
 0.00483470,-0.01991821,0.03301686,0.03286468,0.36076340,-0.01019265,0.
 05235181,-0.02843730,-0.01078375,-0.02434811,0.25958892,0.01486254,-0.
 00230173,-0.03235332,0.01753575,-0.02378380,0.00106334,0.24836036,0.00
 424512,0.00272094,-0.01612841,-0.00436671,-0.08985215,-0.03732613,-0.0
 0531830,0.34511462,-0.02002653,-0.03866682,-0.05085922,0.00916935,0.00
 532657,0.00462140,-0.00724054,0.05299384,0.28411145,-0.03294864,0.0381
 2377,0.03385061,-0.00856815,0.00424510,0.01588068,0.00161043,0.0008915
 4,-0.00129154,0.24836039,0.01896789,-0.00603446,-0.02614128,-0.0055937
 6,0.00337958,0.01459508,0.00089146,0.00152126,-0.00168003,-0.00531884,
 0.34511490,0.01626457,-0.03129614,0.00571038,0.01177017,-0.00701864,-0
 .03093523,-0.00129174,-0.00167994,0.00298835,-0.00724043,0.05299377,0.
 28411128,-0.04642961,-0.03980696,0.02632952,0.00127184,-0.00056510,-0.
 00115629,-0.00856814,-0.00559376,0.01177039,0.01753577,-0.00436706,0.0
 0916930,0.25723402,-0.01645089,-0.00679975,0.01269426,-0.00056495,0.00
 092434,0.00127028,0.00424515,0.00337956,-0.00701865,-0.02378340,-0.089
 85219,0.00532668,0.03286508,0.36076309,0.01698084,0.02105407,0.0199536
 1,-0.00115647,0.00127026,0.00392387,0.01588048,0.01459511,-0.03093523,
 0.00106336,-0.03732636,0.00462137,-0.01078397,-0.02434775,0.25958953,-
 0.04433516,0.01029318,-0.02683253,-0.04642919,-0.01645040,0.01698022,-
 0.03294814,0.01896753,0.01626375,0.01486230,0.00424521,-0.02002638,0.0
 1508259,-0.00483466,-0.01019257,0.29124819,0.01029322,0.00511863,0.003
 95450,-0.03980665,-0.00679939,0.02105380,0.03812351,-0.00603423,-0.031
 29558,-0.00230175,0.00272118,-0.03866645,0.00591574,-0.01991771,0.0523
 5107,0.00003636,0.20489528,-0.02683252,0.00395448,0.00208827,0.0263291
 3,0.01269405,0.01995378,0.03385003,-0.02614085,0.00571082,-0.03235342,
 -0.01612800,-0.05085821,-0.02480039,0.03301614,-0.02843630,-0.06867435
 ,-0.02300819,0.40123746,-0.05132128,-0.00599635,0.05482078,-0.07660418
 ,0.07326070,-0.01885775,-0.10593837,-0.06576134,-0.04855760,0.00106179
 ,-0.00093911,-0.00060245,0.00193223,-0.00001209,-0.00309620,-0.0010409
 5,-0.00059667,-0.00215199,0.24314695,-0.00376188,-0.03032572,0.0061015
 5,0.05356711,-0.12783335,0.02453744,-0.04819754,-0.07915427,-0.0352199
 4,-0.00371392,-0.00613247,0.01039958,0.00299245,-0.00347819,-0.0113598
 8,-0.00156030,-0.00892561,0.00151501,-0.00649158,0.19287957,0.04051010
 ,0.00780331,-0.11073690,-0.01513574,0.02209023,-0.03437959,-0.03863337
 ,-0.03439692,-0.05369968,-0.00305992,-0.00018003,0.00132531,-0.0021129
 0,-0.00060384,-0.00220145,0.00402107,0.00078010,-0.01694617,0.00270799
 ,0.00083807,0.18474121,-0.04003370,-0.00365011,0.03117628,-0.00098739,
 -0.00018158,-0.00101162,-0.00252364,-0.00060461,0.00121784,-0.07750528
 ,0.07057959,-0.01269555,-0.10791519,-0.06523749,-0.03869422,-0.0095860
 7,-0.00164574,0.01108701,-0.00019680,-0.00054289,0.01279926,0.21157993
 ,-0.00588080,-0.03077597,0.01060427,0.00582762,-0.00387881,-0.01071740
 ,-0.00684473,-0.00547230,0.00831917,0.06085395,-0.12682662,0.01006510,
 -0.05338304,-0.08004628,-0.02308815,-0.00068272,-0.00858464,-0.0013404
 2,0.00095984,0.01153399,0.00236655,-0.00681062,0.19413874,0.04548734,0
 .00890071,-0.12157414,0.00176796,-0.00167138,0.00112083,-0.00008771,-0
 .00090271,0.00424852,-0.01934750,0.02646156,-0.03448562,-0.04568860,-0
 .03785995,-0.05083137,0.00491388,-0.00060522,-0.00874203,0.00316590,0.
 00351241,-0.01291070,0.02881086,-0.00699009,0.21504988,-0.04217483,0.0
 2103691,0.00353221,-0.04706373,-0.00198559,0.04571707,-0.00595582,-0.0
 0323098,0.00271075,-0.04999064,-0.00886845,0.04928141,-0.00548875,0.00
 267998,0.00415112,-0.05332333,-0.02140976,-0.00598077,0.00115251,0.019
 01266,0.01121161,0.01527312,-0.00079037,-0.00783479,0.16757976,0.02429
 907,-0.05955648,0.01009226,0.00376457,-0.03004327,-0.01001086,0.000664
 54,-0.00404311,-0.00143452,-0.01461847,-0.03522107,0.02821142,-0.00121
 661,-0.00321727,0.00304230,-0.02467189,-0.04181250,-0.01136024,0.00186
 452,0.00694524,-0.00911060,-0.00479191,0.00076462,0.00718262,0.0135153
 0,0.15718008,0.00385711,0.00854549,-0.04252575,0.04811632,0.00262009,-
 0.13046791,0.00433710,0.00712421,-0.01066277,0.04688218,0.01558040,-0.
 12236345,0.00252467,-0.00551593,-0.01195567,-0.00630565,-0.00981348,-0
 .04917397,0.00411995,-0.01922805,0.01124021,-0.00284950,0.02732829,0.0
 0330023,-0.09493139,-0.01484989,0.32413975,-0.05332190,-0.02140839,-0.
 00598008,-0.00548877,0.00268018,0.00415128,-0.04999155,-0.00886867,0.0
 4928230,-0.00595571,-0.00323077,0.00271066,-0.04706309,-0.00198582,0.0
 4571661,-0.04217548,0.02103801,0.00353213,-0.00395125,-0.02019529,0.00
 669895,0.01639563,0.00091995,-0.00894287,0.00754720,-0.00068431,-0.005
 61363,0.16757921,-0.02467060,-0.04181127,-0.01135953,-0.00121664,-0.00
 321731,0.00304225,-0.01461848,-0.03522094,0.02821115,0.00066450,-0.004
 04315,-0.00143453,0.00376447,-0.03004320,-0.01001054,0.02430016,-0.059
 55853,0.01009260,-0.00208116,0.00462974,0.00399407,0.00395649,0.009435
 36,-0.00301156,-0.00068424,-0.00506113,-0.00274492,0.01351286,0.157180
 78,-0.00630497,-0.00981272,-0.04917330,0.00252468,-0.00551586,-0.01195
 558,0.04688291,0.01558008,-0.12236308,0.00433711,0.00712431,-0.0106628
 0,0.04811605,0.00262027,-0.13046938,0.00385702,0.00854584,-0.04252599,
 0.00760326,0.01484792,0.01865728,-0.00774073,-0.02389409,-0.00649522,-
 0.00561362,-0.00274496,0.01630762,-0.09493254,-0.01485105,0.32414047,-
 0.00958622,-0.00164568,0.01108705,-0.10791528,-0.06523738,-0.03869434,
 -0.07750520,0.07057930,-0.01269569,-0.00252356,-0.00060463,0.00121799,
 -0.00098732,-0.00018165,-0.00101146,-0.04003415,-0.00364996,0.03117567
 ,-0.00766468,0.00819665,-0.02043844,0.00316416,0.00073221,-0.00166130,
 0.01639585,0.00395650,-0.00774064,0.01527328,-0.00479201,-0.00284936,0
 .21157986,-0.00068265,-0.00858442,-0.00134045,-0.05338316,-0.08004651,
 -0.02308834,0.06085385,-0.12682686,0.01006531,-0.00684469,-0.00547240,
 0.00831909,0.00582757,-0.00387890,-0.01071736,-0.00588070,-0.03077631,
 0.01060390,0.00509871,0.03286679,0.00602350,0.00073220,0.00684511,0.00
 132334,0.00092001,0.00943529,-0.02389429,-0.00079052,0.00076447,0.0273
 2858,-0.00681048,0.19413964,0.00491390,-0.00060522,-0.00874185,-0.0456
 8871,-0.03786021,-0.05083168,-0.01934749,0.02646184,-0.03448584,-0.000
 08778,-0.00090271,0.00424836,0.00176787,-0.00167135,0.00112071,0.04548
 714,0.00890028,-0.12157215,-0.00058326,0.00366032,0.01139752,-0.001661
 28,0.00132332,-0.00007799,-0.00894288,-0.00301172,-0.00649558,-0.00783
 479,0.00718288,0.00329992,0.02881141,-0.00698982,0.21504909,-0.0010408
 7,-0.00059662,-0.00215215,0.00193220,-0.00001209,-0.00309618,0.0010617
 8,-0.00093912,-0.00060247,-0.10593870,-0.06576153,-0.04855755,-0.07660
 436,0.07326073,-0.01885753,-0.05132060,-0.00599632,0.05481947,-0.00057
 596,0.00069453,0.00143138,-0.00766476,0.00509870,-0.00058318,-0.003951
 33,-0.00208132,0.00760348,0.00115243,0.00186464,0.00412018,-0.00019677
 ,0.00095984,0.00316587,0.24314693,-0.00156026,-0.00892541,0.00151511,0
 .00299238,-0.00347831,-0.01135981,-0.00371395,-0.00613254,0.01039951,-
 0.04819780,-0.07915457,-0.03521995,0.05356721,-0.12783350,0.02453724,-
 0.00376176,-0.03032617,0.00610151,0.00069454,0.00699429,0.00039556,0.0
 0819666,0.03286680,0.00366028,-0.02019547,0.00462960,0.01484809,0.0190
 1276,0.00694517,-0.01922832,-0.00054287,0.01153410,0.00351240,-0.00649
 144,0.19288054,0.00402094,0.00078018,-0.01694618,-0.00211267,-0.000603
 85,-0.00220148,-0.00305969,-0.00018009,0.00132526,-0.03863336,-0.03439
 671,-0.05369973,-0.01513565,0.02208983,-0.03437969,0.04050840,0.007803
 32,-0.11073552,0.00143136,0.00039557,0.00351295,-0.02043835,0.00602345
 ,0.01139760,0.00669927,0.00399418,0.01865729,0.01121197,-0.00911082,0.
 01124006,0.01279910,0.00236654,-0.01291050,0.00270869,0.00083839,0.184
 73996\\0.00022344,-0.00005446,0.00010052,0.00000936,-0.00001845,-0.000
 00863,-0.00000003,0.00001988,-0.00000916,0.00000114,-0.00002034,0.0000
 0962,-0.00000819,0.00001808,0.00000901,-0.00022351,0.00005489,-0.00010
 084,-0.00002183,0.00000604,0.00000213,-0.00001304,0.00000799,-0.000017
 27,0.00000079,0.00014262,0.00001474,-0.00000329,-0.00014205,-0.0000155
 8,0.00001312,-0.00000809,0.00001753,0.00002204,-0.00000612,-0.00000208
 \\\@


    WHAT WE HAVE LEARNED
 IS LIKE A HANDFUL OF EARTH;
  WHAT WE HAVE YET TO LEARN
   IS LIKE THE WHOLE WORLD.

         -- AVVAYIAR
 Job cpu time:  0 days  0 hours  6 minutes 52.3 seconds.
 File lengths (MBytes):  RWF=     56 Int=      0 D2E=      0 Chk=      3 Scr=      1
 Normal termination of Gaussian 09 at Thu Mar 14 12:29:02 2019.
